ITEM: TIMESTEP
0
ITEM: NUMBER OF ATOMS
2792
ITEM: BOX BOUNDS pp pp pp
6.7011339712180984e-01 1.6626028660283973e+02
6.7011339712180984e-01 1.6626028660283973e+02
6.7011339712180984e-01 1.6626028660283973e+02
ITEM: ATOMS id type x y z
265326 1 9.62146 8.23185 7.40779
54731 1 17.5157 6.57511 8.95733
54406 1 38.1216 8.07592 7.66031
212286 1 9.56671 11.1702 7.47188
1691 1 17.5874 9.87034 8.93393
1356 1 22.2213 11.2369 7.34304
1358 1 25.5166 11.2168 7.37084
212312 1 9.64892 14.7752 7.34562
1747 1 23.5874 16.0415 8.96753
1749 1 27.1374 16.0754 8.94264
1390 1 35.0005 14.5447 7.42527
212701 1 7.90795 19.3137 8.95601
212340 1 12.5394 17.6615 7.44768
212368 1 15.7456 21.0147 7.49767
1410 1 25.3799 17.7207 7.40609
1434 1 22.2971 20.799 7.51739
1416 1 34.9885 17.5649 7.42975
1442 1 34.983 20.9928 7.41794
1446 1 41.0817 20.9794 7.39585
212727 1 7.93738 22.4643 8.89791
212729 1 11.0494 22.5043 8.89319
212394 1 15.9046 24.0441 7.50091
1464 1 28.5715 24.0176 7.50969
1468 1 34.8924 23.9608 7.46942
1470 1 38.2089 23.9345 7.48759
212418 1 12.6678 27.302 7.41394
212420 1 15.805 27.2123 7.37441
1492 1 31.787 27.263 7.45784
1494 1 34.7919 27.2734 7.5827
1498 1 41.336 27.2642 7.37318
212444 1 12.6909 30.3325 7.40432
212446 1 15.8204 30.4006 7.4249
212472 1 15.8665 33.5367 7.41883
1512 1 22.1065 30.4876 7.33586
1542 1 28.4011 33.5141 7.51343
1522 1 38.0799 30.3574 7.41146
212833 1 11.1457 35.1336 8.84621
1570 1 31.8785 36.7993 7.40305
1574 1 38.0076 36.9758 7.36294
1576 1 41.2979 36.858 7.47238
212520 1 9.5205 40.051 7.5709
265663 1 8.04425 6.49322 9.02292
265664 1 9.55187 8.21189 10.6316
55073 1 23.839 6.56619 12.2181
54734 1 22.1147 8.01233 10.5633
54738 1 28.5478 8.16018 10.6535
55079 1 33.3572 6.45145 12.1927
54742 1 35.0801 8.10487 10.7007
54744 1 38.1374 8.1191 10.7053
212961 1 7.87253 9.71482 12.3601
212651 1 11.0939 12.9727 9.10961
212963 1 11.1998 9.72031 12.2777
212624 1 9.43989 11.1913 10.5716
212627 1 14.1674 9.68607 9.08615
2029 1 17.5976 9.77174 12.3194
212628 1 15.7745 11.3458 10.716
2055 1 17.6273 12.8425 12.2797
1719 1 20.7044 12.8901 9.14815
2031 1 20.5557 9.78676 12.2649
1695 1 23.8481 9.78914 9.21271
2059 1 23.7564 12.8513 12.0801
2061 1 27.0001 12.8853 12.0815
2063 1 30.0756 13.0039 12.1633
1701 1 33.4843 9.89072 8.94645
2039 1 33.4452 9.78012 12.2531
2065 1 33.5288 12.9022 12.3502
1729 1 36.5629 12.8562 9.07113
1704 1 38.2107 11.3458 10.8213
1706 1 41.2953 11.4625 10.7736
212649 1 8.05706 13.1091 9.10117
213013 1 7.83317 16.0471 12.0742
212652 1 12.7907 14.6071 10.6738
212679 1 14.377 16.1342 9.04077
1718 1 18.9848 14.6123 10.7064
2083 1 20.769 16.1511 12.2321
1722 1 25.3822 14.6498 10.6437
2085 1 23.7023 16.1732 12.2671
1751 1 30.0726 16.0137 8.94717
1726 1 31.9333 14.6027 10.6628
1728 1 34.9323 14.6471 10.7114
1730 1 38.1477 14.5398 10.7617
1757 1 39.7775 16.0452 9.01089
213041 1 11.1588 19.3394 12.3223
212704 1 12.6957 20.956 10.577
212705 1 14.3 19.1894 9.07187
1769 1 17.4568 19.2842 9.04667
213043 1 14.2989 19.2445 12.3011
1771 1 20.6122 19.2988 9.1126
1744 1 18.9644 17.6434 10.7323
1748 1 25.3448 17.6862 10.5983
1774 1 25.2557 20.8853 10.7083
1776 1 28.6352 20.887 10.583
1778 1 31.6577 20.8205 10.61
1781 1 36.5738 19.2155 9.1838
1780 1 34.938 21.0038 10.6688
2121 1 39.7031 19.2656 12.2312
213067 1 11.0388 22.5363 12.3554
2133 1 17.4349 22.4117 12.2148
2135 1 20.6232 22.4021 12.0819
1799 1 23.7537 22.5699 8.98728
1804 1 31.7016 24.0307 10.6419
1808 1 38.0823 23.9881 10.5224
2147 1 39.6507 22.4562 12.3326
1810 1 41.3515 24.0814 10.7269
212753 1 7.96236 25.6611 8.96172
213091 1 7.93865 25.6894 12.23
213117 1 7.72668 28.8139 12.1969
213119 1 11.1885 28.8942 12.24
1821 1 17.54 25.7802 9.03897
213095 1 14.3255 25.7092 12.2182
2159 1 17.4291 25.7428 12.1882
213121 1 14.3757 28.7677 12.2787
1849 1 20.6583 28.7177 8.97972
2161 1 20.5399 25.6413 12.2047
2187 1 20.607 28.7877 12.1275
1825 1 23.7872 25.6762 8.993
2163 1 23.8345 25.6346 12.2098
1827 1 26.8762 25.7337 8.96045
1855 1 30.0597 28.7437 9.01842
1830 1 31.7962 27.2165 10.652
1859 1 36.6314 28.7185 9.05299
2171 1 36.5676 25.6056 12.3153
1836 1 41.3712 27.2648 10.7008
212805 1 7.84249 32.1333 9.01293
212780 1 9.47494 30.3269 10.4963
212782 1 12.7878 30.297 10.3861
213145 1 11.1673 31.8806 12.2347
212808 1 12.7138 33.6455 10.7042
213147 1 14.2786 31.8586 12.2788
2211 1 17.3355 31.9411 12.1892
1848 1 19.0303 30.4213 10.5472
1877 1 23.8385 31.8644 9.06183
2215 1 23.8021 31.8911 12.1111
1854 1 28.5218 30.4431 10.6024
1880 1 28.5051 33.4922 10.5509
1883 1 33.3722 32.111 9.08565
1856 1 31.738 30.4046 10.6445
2223 1 36.3361 32.194 12.247
1886 1 38.1732 33.6281 10.6959
1887 1 39.7583 31.9105 9.01521
2225 1 39.7864 31.958 12.2191
212834 1 12.5616 36.7606 10.7486
212836 1 15.9326 36.6087 10.623
1903 1 23.7698 35.2594 8.91036
2241 1 23.8502 35.2221 12.2759
1902 1 22.1059 36.8574 10.7015
1904 1 25.4348 36.7607 10.6042
1909 1 33.3387 35.1191 9.12839
1908 1 31.8007 36.8513 10.7849
1911 1 36.4508 35.1774 9.0807
1913 1 39.584 35.2876 9.02247
212857 1 7.90266 38.2935 9.07427
213195 1 7.87491 38.3773 12.2879
212860 1 12.5578 39.9405 10.49
213223 1 11.1121 41.5636 12.3021
1925 1 17.3954 38.443 9.04638
1951 1 17.4528 41.464 8.96293
213199 1 14.3739 38.4105 12.1662
2289 1 17.4835 41.3934 12.1542
2265 1 20.4254 38.5242 12.2704
1930 1 25.365 39.9149 10.672
2293 1 23.8532 41.6648 12.1602
1957 1 26.9927 41.6394 9.09315
1959 1 30.1276 41.6993 9.01278
2297 1 30.1644 41.6932 12.2181
1934 1 31.8071 39.8806 10.6998
1963 1 36.502 41.644 9.08627
2275 1 36.5487 38.3318 12.1433
2301 1 36.5362 41.6284 12.2899
1939 1 39.6254 38.462 9.13711
2303 1 39.6914 41.6902 12.2755
266339 1 7.99382 6.53289 15.5318
266343 1 14.292 6.57052 15.4101
55409 1 20.589 6.51042 15.3529
55074 1 25.4288 8.16292 13.8795
55414 1 28.4017 8.12814 17.1321
55417 1 33.3208 6.61607 15.5575
55078 1 31.7042 8.07062 13.7709
55082 1 38.1352 8.27402 13.8172
55422 1 41.398 8.24362 16.9247
213325 1 7.89922 12.7902 15.4611
213303 1 14.1936 9.74413 15.3863
2367 1 17.5819 9.69547 15.3576
2395 1 20.5755 13.0303 15.3642
2371 1 23.779 9.73245 15.4674
2375 1 30.2174 9.66531 15.5486
2399 1 26.9263 13.0548 15.6009
2374 1 28.6544 11.4229 17.0984
2038 1 31.727 11.3718 13.8604
2376 1 31.7812 11.4391 17.1539
2040 1 35.1678 11.121 13.9396
2405 1 36.4782 13.0638 15.3792
2380 1 38.2172 11.3833 16.9444
212990 1 12.6679 14.46 13.7798
212992 1 15.7796 14.3967 13.7454
2419 1 17.4735 16.1471 15.3502
2423 1 23.7734 16.09 15.4925
2062 1 28.4205 14.6178 13.8562
2402 1 31.7965 14.4624 17.1461
2431 1 36.3967 16.1046 15.53
2068 1 38.2363 14.5752 13.8592
2404 1 34.8441 14.4398 17.1984
2408 1 41.1286 14.4982 17.0937
213377 1 8.05073 19.3619 15.418
213379 1 11.1507 19.3596 15.4009
2447 1 20.7072 19.1592 15.3501
2108 1 19.0306 20.8187 13.8764
2446 1 19.0802 20.8382 16.914
2449 1 23.7531 19.1599 15.3267
2086 1 25.5847 17.6007 13.8649
2110 1 22.2958 20.9898 13.8229
2450 1 25.3657 20.794 16.989
2114 1 28.5268 20.8598 13.8463
2090 1 31.7853 17.7274 13.7928
2116 1 31.7739 20.8771 13.8604
2428 1 31.8228 17.81 16.9895
2092 1 34.9693 17.7765 13.8465
2432 1 38.2319 17.6885 16.9267
2456 1 34.8925 20.8707 16.9509
213403 1 8.00396 22.4328 15.3815
213404 1 9.54843 24.0642 17.087
213407 1 14.2022 22.4177 15.4273
213408 1 15.9192 24.1864 16.9968
2136 1 22.2313 23.9782 13.8683
2474 1 22.2358 23.9606 16.845
2476 1 25.3356 24.1493 16.9614
2140 1 28.5595 24.0737 13.7254
2142 1 31.6588 24.0332 13.8209
2480 1 31.7259 24.0999 17.0465
2484 1 38.0837 24.0635 17.0849
2486 1 41.229 23.9762 17.0016
213429 1 7.88723 25.6302 15.4124
213092 1 9.53996 27.3651 13.9017
213432 1 12.6332 27.3001 17.1239
213459 1 14.3418 28.8632 15.3826
2160 1 18.9816 27.3429 13.9925
2500 1 22.2459 27.2354 16.9285
2529 1 27.1094 28.8168 15.523
2166 1 28.521 27.2221 13.6986
2507 1 33.3486 25.7198 15.3971
2509 1 36.5412 25.6988 15.4009
2174 1 41.3369 27.2032 13.8379
2537 1 39.5014 28.7582 15.5379
213483 1 11.1202 32.0237 15.4642
213456 1 9.40209 30.24 16.9214
213485 1 14.2933 31.8754 15.3931
2549 1 17.3492 31.8498 15.4103
2551 1 20.6488 31.9356 15.4612
2212 1 19.1079 33.5916 13.7231
2190 1 25.3498 30.341 13.9029
2526 1 22.2622 30.2426 17.0138
2528 1 25.2503 30.2432 17.0808
2552 1 22.2911 33.7635 16.7843
2554 1 25.3041 33.6183 16.884
2218 1 28.5852 33.5264 13.8314
2559 1 33.4113 32.1045 15.346
2220 1 31.6741 33.6403 13.7469
2196 1 34.9249 30.2708 13.7143
2198 1 38.0142 30.4461 13.8273
2534 1 34.8156 30.511 17.1224
2562 1 38.177 33.5581 17.0094
2564 1 41.2045 33.6455 16.9945
213507 1 8.00323 35.2869 15.414
213170 1 9.70829 36.7932 13.7139
213510 1 12.6814 36.8669 16.9097
2575 1 17.357 35.2578 15.3986
2238 1 19.0722 36.6092 13.6924
2583 1 30.1206 35.2661 15.6037
2244 1 28.5811 36.8573 13.8575
2585 1 33.3513 35.191 15.5238
2587 1 36.4096 35.1503 15.5247
2586 1 34.9206 36.9652 17.0515
2252 1 41.1598 36.8188 13.8533
213559 1 7.98117 41.5308 15.2169
213198 1 12.6588 39.8227 14.0068
213534 1 9.58374 40.0043 16.9688
213563 1 14.2156 41.6655 15.5909
213200 1 15.8186 40.0073 13.9608
2603 1 20.5576 38.4022 15.3514
2602 1 18.9885 40.0415 17.0914
2268 1 25.4599 39.96 13.7822
2604 1 22.2409 39.957 17.0934
2633 1 26.9615 41.5807 15.5534
2270 1 28.5694 40.0112 13.821
2608 1 28.6496 40.0247 17.1105
2272 1 31.7661 39.8704 13.7787
2637 1 33.3325 41.4211 15.5416
2276 1 38.1426 39.9381 14.0332
2616 1 41.2095 39.9661 16.9394
266679 1 10.9816 6.6018 18.5898
55745 1 17.5199 6.53977 18.5568
55747 1 20.6727 6.53773 18.6978
55749 1 23.7677 6.50964 18.7189
55753 1 30.0438 6.59336 18.6298
55755 1 33.5587 6.62123 18.7098
55754 1 31.7078 8.04985 20.2809
55759 1 39.6833 6.66043 18.6814
213663 1 7.96271 12.8471 18.4917
213639 1 11.049 9.75343 18.4875
213665 1 11.0852 12.8742 18.465
2705 1 17.573 9.73726 18.6
213667 1 14.2811 12.9512 18.614
2731 1 17.4873 13.0148 18.743
213642 1 15.7806 11.2596 20.21
2709 1 23.7676 9.75443 18.7195
2711 1 26.963 9.88522 18.7925
2713 1 30.1297 9.64419 18.7072
2717 1 36.5999 9.65328 18.6547
2716 1 34.8989 11.3891 20.2397
2720 1 41.3336 11.4518 20.1346
213689 1 8.04774 16.0721 18.4652
213691 1 11.1349 16.1799 18.4711
213693 1 14.2728 16.1352 18.6263
2759 1 20.5871 16.1223 18.607
2763 1 27.0548 15.9668 18.537
2767 1 33.4378 16.3511 18.6856
2769 1 36.4965 16.1838 18.6584
213715 1 8.05853 19.2705 18.4666
213716 1 9.547 20.9667 20.159
213719 1 14.2012 19.2764 18.46
213720 1 15.8288 20.7344 20.2707
2762 1 25.3497 17.7405 20.0319
2786 1 22.2228 20.8811 20.1084
2788 1 25.3897 20.909 20.1883
2764 1 28.4782 17.8052 20.0897
2790 1 28.4405 20.8692 20.1735
2793 1 33.3281 19.3834 18.7258
2795 1 36.5261 19.3514 18.6588
213743 1 11.2525 22.3524 18.3881
213744 1 12.674 24.0673 20.1162
2809 1 17.4187 22.4195 18.6564
2837 1 20.6227 25.5077 18.6633
2839 1 23.739 25.5473 18.7818
2817 1 30.1664 22.5253 18.703
2820 1 34.9624 24.1557 20.173
2823 1 39.5789 22.4768 18.7824
213772 1 15.8192 27.2703 20.07
2838 1 22.0574 27.3868 20.1698
2840 1 25.599 27.2768 20.0649
2842 1 28.5327 27.2319 20.2065
2871 1 33.4324 28.7013 18.6395
2844 1 31.6864 27.236 20.1949
2873 1 36.5685 28.8117 18.6303
213821 1 10.9995 32.0023 18.6189
213823 1 14.268 31.9845 18.5866
2889 1 20.7426 32.0913 18.5939
2862 1 19.0484 30.332 20.0803
2891 1 23.7559 32.1225 18.6875
2893 1 26.9821 32.0113 18.5395
2868 1 28.5561 30.3383 20.1565
2894 1 28.6607 33.5577 20.2051
2872 1 34.7255 30.5192 20.2957
2874 1 38.2347 30.5815 20.2788
2902 1 41.2316 33.5352 20.2104
213847 1 10.9979 35.0599 18.4494
2913 1 17.3721 35.1735 18.588
2914 1 19.0981 36.7737 20.335
2917 1 23.8268 35.1135 18.695
2919 1 27.0291 35.2285 18.5096
2920 1 28.6864 36.8272 20.2412
2923 1 33.3216 35.156 18.6696
2924 1 34.8758 37.0078 20.1112
2928 1 41.427 36.7997 20.0419
213874 1 12.6 39.8777 20.056
213875 1 14.3878 38.3563 18.5874
2939 1 17.368 38.2869 18.5992
2965 1 17.3032 41.6848 18.7405
2941 1 20.7387 38.4012 18.6967
2969 1 23.9346 41.4187 18.6179
2948 1 31.716 39.9057 20.0427
267015 1 7.91267 6.52889 21.7762
267017 1 11.0527 6.57171 21.7398
267018 1 12.6616 8.19026 23.3646
56421 1 17.4359 6.57647 25.0348
267020 1 15.8767 8.24187 23.3391
56085 1 20.7651 6.49909 21.6983
56084 1 19.0872 8.14164 23.3686
56088 1 25.3096 8.19109 23.3508
56089 1 26.8805 6.44706 21.7732
56427 1 26.9098 6.52844 25.0652
56429 1 30.1454 6.56646 25.0878
56431 1 33.3228 6.52431 25.081
56095 1 36.6068 6.50418 21.7377
56435 1 39.7898 6.45461 24.9237
213975 1 7.98077 9.74281 21.8162
214003 1 11.1795 12.8388 21.9607
214315 1 11.1437 9.92779 24.8543
214005 1 14.2611 13.0103 21.8274
213980 1 15.9238 11.4493 23.4576
3045 1 20.6099 9.86321 21.846
3071 1 20.5049 12.8728 21.7823
3383 1 20.6713 9.81483 24.9932
3409 1 20.7366 12.9016 24.9614
3048 1 25.2709 11.333 23.2965
3049 1 27.1196 9.84768 21.7219
3075 1 27.1177 12.8733 21.7206
3387 1 26.972 9.76283 25.0665
3053 1 33.4078 9.65107 21.7719
3391 1 33.3954 9.68873 25.0951
3052 1 31.8027 11.3156 23.426
3081 1 36.6669 12.9142 21.7585
3393 1 36.5835 9.78266 25.055
3419 1 36.641 12.8248 24.9888
3057 1 39.6686 9.75476 21.6981
3395 1 39.5924 9.89286 25.0404
214365 1 7.98612 16.1254 25.0632
214002 1 9.45831 14.5609 23.3028
214367 1 11.0963 16.0221 25.0301
214369 1 14.3545 16.0149 24.9857
3070 1 18.8967 14.5772 23.4115
3072 1 22.231 14.5153 23.2363
3437 1 23.7442 16.0333 25.0783
3103 1 30.1625 16.1499 21.707
3105 1 33.382 16.2495 21.746
3078 1 31.8089 14.5146 23.451
3443 1 33.3247 16.2051 25.0837
214053 1 7.891 19.2083 21.8139
214054 1 9.54802 20.8966 23.4093
214056 1 12.7427 20.8587 23.3356
214032 1 15.9518 17.6151 23.2532
3459 1 17.5147 19.357 25.0051
3123 1 20.5896 19.3888 21.8456
3463 1 23.6473 19.4228 25.0033
3127 1 26.9757 19.2522 21.855
3129 1 30.235 19.3149 21.7068
3128 1 28.5236 20.9345 23.4786
3133 1 36.4503 19.419 21.7424
3108 1 38.0101 17.6916 23.4577
3110 1 41.296 17.6515 23.3996
3136 1 41.199 20.8639 23.4523
214080 1 9.54333 23.9691 23.325
3147 1 17.4167 22.4821 21.7608
3487 1 20.614 22.293 24.9299
3152 1 25.4712 23.9622 23.3067
3495 1 33.3988 22.457 24.9919
3156 1 31.6218 24.1598 23.3982
3497 1 36.4224 22.4485 25.0319
3162 1 41.2882 24.0081 23.3581
214105 1 7.85412 25.6374 21.7647
214131 1 7.89116 28.794 21.7138
214133 1 11.083 28.8817 21.7439
214471 1 11.0673 28.7466 24.9716
214108 1 12.753 27.1913 23.3059
214110 1 15.8208 27.2465 23.3915
3174 1 19.0317 27.181 23.3528
3203 1 23.9118 28.7189 21.776
3176 1 22.1664 27.2201 23.406
3180 1 28.5549 27.1372 23.3572
3182 1 31.6708 27.1486 23.3775
3547 1 33.359 28.8033 25.0445
3523 1 36.3975 25.6718 25.145
3184 1 34.9364 27.227 23.2521
3549 1 36.4469 28.7379 25.122
3187 1 39.6834 25.6497 21.7307
3213 1 39.7423 28.7544 21.873
3525 1 39.704 25.7364 25.0373
214157 1 7.94952 31.949 21.5467
214158 1 9.43766 33.5707 23.3984
214161 1 14.1886 31.9373 21.7255
3225 1 17.4638 32.067 21.7683
3227 1 20.6872 32.0815 21.8385
3200 1 19.0395 30.2873 23.3953
3229 1 23.8423 32.0987 21.772
3204 1 25.4625 30.2654 23.4574
3567 1 23.8773 32.1782 24.8646
3233 1 30.2115 31.9605 21.9062
3206 1 28.4258 30.2765 23.4401
3569 1 26.9346 32.2458 24.856
3573 1 33.2035 32.0165 24.9972
3212 1 38.0653 30.5094 23.4153
3236 1 34.9633 33.5806 23.4691
214523 1 11.1701 35.2292 24.9498
3251 1 17.4435 35.1835 21.8573
214525 1 14.223 35.2697 24.8899
3589 1 17.508 35.2339 24.8787
3593 1 23.9204 35.2285 24.9379
3597 1 30.2263 34.9439 24.9579
3258 1 28.6485 36.741 23.3724
3260 1 31.6146 36.7488 23.387
3263 1 36.4142 35.2766 21.7006
3265 1 39.7603 35.3275 21.8362
3603 1 39.7626 35.2022 25.0819
214235 1 8.00524 41.5445 21.7997
214547 1 7.87538 38.3974 24.9126
214211 1 11.0936 38.4936 21.9225
214575 1 11.1043 41.4563 24.8924
214239 1 14.2829 41.5502 21.6392
214551 1 14.1903 38.2774 24.7894
3615 1 17.5425 38.3862 24.8665
3305 1 20.5895 41.492 21.79
3617 1 20.708 38.4356 24.8878
3281 1 23.7862 38.4528 21.8946
3285 1 30.1843 38.5802 21.9056
3309 1 27.0365 41.484 21.8959
3649 1 30.1611 41.5793 24.8399
3287 1 33.3086 38.3961 21.9412
3313 1 33.1723 41.6248 21.8208
3627 1 36.41 38.2715 25.1466
3653 1 36.5496 41.6385 25.103
3290 1 38.0486 39.8699 23.4044
3629 1 39.7372 38.1999 25.089
3655 1 39.6284 41.6686 25.0453
3292 1 41.3827 39.9642 23.5657
267352 1 6.45624 8.08767 26.5748
267356 1 12.5512 8.19815 26.5557
56424 1 22.3043 8.09439 26.5776
56767 1 30.0984 6.50465 28.1736
214677 1 7.95065 12.9175 28.1459
214314 1 9.48576 11.2179 26.5657
214679 1 11.036 12.9369 28.1568
214655 1 14.2829 9.69914 28.221
3382 1 19.0014 11.5189 26.6948
3749 1 23.8205 12.8162 28.1614
3725 1 26.9658 9.73215 28.0291
3727 1 30.1778 9.84734 28.1161
3753 1 30.1982 12.9018 28.2394
3733 1 39.7012 9.82035 28.1865
3396 1 41.4151 11.3307 26.657
214342 1 12.7432 14.4468 26.6437
3771 1 17.4152 16.0227 28.1324
3775 1 23.77 16.0635 28.1593
3414 1 28.54 14.618 26.5661
3781 1 33.2654 16.1725 28.2205
3420 1 38.0984 14.5864 26.683
214729 1 7.88885 19.3173 28.1451
214731 1 11.1532 19.2658 28.1837
214394 1 12.7945 20.9475 26.4833
214733 1 14.1817 19.2549 28.2462
3799 1 20.5381 19.296 28.1136
3464 1 25.5235 20.8499 26.5057
3440 1 28.5043 17.6635 26.5429
3805 1 30.1451 19.3543 28.1253
3807 1 33.3085 19.2737 28.1275
3809 1 36.5818 19.2929 28.2214
3448 1 41.2022 17.7816 26.6756
214418 1 9.34167 23.9455 26.6371
3823 1 17.4757 22.431 28.208
214422 1 15.7408 23.9955 26.5172
3829 1 27.0111 22.3898 28.3143
3831 1 30.0504 22.3276 28.1869
3494 1 31.7258 24.1346 26.732
3835 1 36.5187 22.3661 28.1622
3837 1 39.6737 22.283 28.2838
3500 1 41.3106 24.0092 26.65
214807 1 7.87037 28.8288 28.0538
214783 1 11.1175 25.6115 28.1469
214446 1 12.7766 27.12 26.6288
3875 1 17.4234 28.8969 28.2797
3512 1 19.0285 27.1475 26.5618
3877 1 20.6045 28.8975 28.2089
3514 1 22.2825 27.2089 26.6145
3855 1 26.9347 25.5864 28.1442
3881 1 26.9746 28.7688 28.0747
3883 1 30.0331 28.701 28.1379
3861 1 36.4415 25.6528 28.19
3887 1 36.5178 28.7873 28.1218
3863 1 39.6972 25.6563 28.2646
214837 1 14.1379 32.0068 28.1244
3901 1 17.5739 32.0634 28.2346
3903 1 20.5464 32.066 28.164
3540 1 22.4199 30.3987 26.5634
3907 1 26.8392 31.9706 28.1659
3544 1 28.5233 30.4744 26.5082
3546 1 31.6878 30.3766 26.6818
3913 1 36.5415 31.948 28.1625
3578 1 41.4399 33.514 26.6962
214859 1 7.80287 35.1353 28.2875
214861 1 11.1911 35.0939 28.2168
214863 1 14.19 35.2167 28.267
3927 1 17.5365 35.1679 28.2032
3929 1 20.5151 35.1126 28.126
3931 1 23.9021 35.1929 28.0584
3935 1 30.173 35.2287 28.2287
3596 1 28.586 36.7758 26.517
214911 1 7.79024 41.4378 28.1609
214887 1 11.1475 38.4934 28.325
214889 1 14.2832 38.3478 28.3549
3953 1 17.4991 38.5364 28.2597
214552 1 15.7445 40.0105 26.5561
3981 1 20.553 41.4349 28.175
3957 1 23.7061 38.4379 28.09
3985 1 26.9254 41.6795 28.1922
3963 1 33.4358 38.4187 28.1816
3989 1 33.4934 41.4642 28.2882
3993 1 39.7282 41.6764 28.2232
268031 1 11.0123 6.58877 31.3989
267692 1 9.53995 8.15987 29.6385
267696 1 16.0234 8.14543 29.8378
57098 1 18.9677 8.2388 32.9642
56762 1 22.312 8.16056 29.8562
56764 1 25.4566 8.17116 29.9552
56768 1 31.7409 8.12879 29.7845
56770 1 35.0727 8.1987 29.7329
57108 1 35.0106 8.19799 32.9492
56774 1 41.3232 8.07532 29.782
57112 1 41.317 7.98621 32.8772
214989 1 7.90939 9.64329 31.3419
214652 1 9.54086 11.3043 29.7733
214990 1 9.49716 11.3789 33.1027
214992 1 12.7325 11.359 32.9899
214656 1 15.9039 11.4283 29.767
214994 1 15.8771 11.4032 32.9422
3720 1 19.0897 11.3982 29.7401
3724 1 25.5467 11.2268 29.9806
4062 1 25.5451 11.2344 32.9451
4065 1 30.2209 9.75378 31.4991
3726 1 28.5029 11.2703 29.9419
4091 1 30.2368 12.9708 31.4199
3732 1 37.959 11.2517 29.7518
4070 1 38.0381 11.3148 33.0139
4097 1 39.8121 12.7712 31.3569
214676 1 6.46607 14.5221 29.8354
215014 1 6.48259 14.4063 32.8353
214678 1 9.44978 14.5694 29.8309
214680 1 12.74 14.4873 29.7347
4109 1 17.3796 15.9745 31.3826
3746 1 19.2248 14.4742 29.6566
3750 1 25.5127 14.5073 29.8197
4086 1 22.3851 14.6626 32.8704
4088 1 25.4117 14.537 32.9807
4092 1 31.7977 14.5669 33.124
3756 1 34.9292 14.5255 29.8168
3758 1 38.2087 14.6125 29.8359
4094 1 34.9296 14.5156 33.1445
4096 1 38.0911 14.5722 33.0677
3760 1 41.2433 14.7096 29.8654
215067 1 7.85487 19.3006 31.2939
214704 1 9.43452 17.5583 29.7314
215069 1 11.2243 19.2173 31.1839
215044 1 12.5299 17.8335 33.1837
215068 1 9.58664 20.8169 32.9455
215071 1 14.2325 19.2251 31.3746
4135 1 17.4149 19.3201 31.3982
4110 1 19.0643 17.6274 32.9566
4136 1 19.0278 20.8583 32.9996
3776 1 25.4141 17.675 29.821
3800 1 22.2977 20.8829 29.8109
4138 1 22.3713 20.8759 32.9113
4141 1 26.9819 19.361 31.4555
3778 1 28.6336 17.7213 29.8764
4142 1 28.7456 20.873 32.9297
3806 1 31.7687 20.9112 29.8605
4118 1 31.7603 17.6962 33.0185
4147 1 36.3991 19.2227 31.4144
3784 1 38.2681 17.5691 29.8859
3786 1 41.3069 17.6706 29.7742
4149 1 39.8046 19.3611 31.4067
215094 1 9.55801 24.096 32.7739
215098 1 15.7717 23.9709 33.037
4163 1 20.541 22.3812 31.3238
3824 1 19.1858 24.0577 29.6569
3826 1 22.2129 23.9799 29.7095
4167 1 26.9594 22.4368 31.339
4171 1 33.4053 22.4431 31.5231
4197 1 33.4066 25.4433 31.3248
4173 1 36.4036 22.4326 31.3976
4172 1 35.0342 24.1837 33.1561
4175 1 39.8186 22.3514 31.2887
214782 1 9.46566 27.1781 29.7481
215147 1 11.0262 28.7837 31.4579
215123 1 14.1768 25.5932 31.3192
4187 1 17.4044 25.6375 31.399
215149 1 14.3198 28.8619 31.3991
4191 1 23.87 25.5848 31.385
3854 1 25.4251 27.3342 29.8141
4192 1 25.4571 27.2404 32.98
4193 1 26.967 25.5023 31.333
4195 1 30.1166 25.5727 31.372
4221 1 30.1164 28.7805 31.4293
4196 1 31.9043 27.2336 32.7947
4199 1 36.3958 25.5246 31.1998
3860 1 34.8125 27.4099 29.8757
4200 1 37.9697 27.1361 32.9609
4201 1 39.8275 25.6754 31.3344
3864 1 41.3352 27.4219 29.7208
4227 1 39.6655 28.8871 31.4695
214810 1 12.5481 30.3469 29.7463
214834 1 9.43664 33.5033 29.8349
215146 1 9.3517 30.5149 32.9632
215174 1 12.6869 33.7157 33.0164
215175 1 14.2518 31.8979 31.4144
4241 1 20.6561 32.0321 31.4072
4214 1 19.0524 30.3778 32.9949
3878 1 22.4088 30.4364 29.6491
4218 1 25.4473 30.4819 32.9224
4244 1 25.3529 33.5228 33.0149
3908 1 28.4951 33.5591 29.7306
4220 1 28.4901 30.4811 32.9183
4246 1 28.5996 33.5651 33.0162
4249 1 33.3516 31.9873 31.4467
3910 1 31.7647 33.5822 29.783
4248 1 31.6633 33.6613 33.0365
4224 1 34.9714 30.2581 32.899
3890 1 41.4122 30.4046 29.7245
4228 1 41.4984 30.486 32.9368
215199 1 11.1173 35.1448 31.2665
215198 1 9.54432 36.675 33.0377
215200 1 12.6087 36.7669 33.0151
4265 1 17.5314 35.1423 31.3311
215202 1 15.8691 36.853 32.92
4269 1 23.761 35.1715 31.4565
3930 1 22.1782 36.7502 29.8157
3932 1 25.3523 36.831 29.7961
4268 1 22.1678 36.8835 33.0173
4270 1 25.2691 36.9828 33.0715
4274 1 31.8126 36.7637 32.8959
3914 1 38.0594 33.7463 29.8289
3940 1 38.0187 36.7525 29.7973
4276 1 34.9344 36.7885 32.8269
3942 1 41.2575 36.7536 29.7994
215223 1 7.86333 38.3662 31.2671
215251 1 11.1998 41.5157 31.2827
215224 1 9.32727 40.1353 32.9213
215227 1 14.224 38.422 31.2589
4291 1 17.4471 38.5638 31.3252
4317 1 17.4406 41.5528 31.2927
4293 1 20.5999 38.5924 31.2742
4321 1 23.733 41.6363 31.2828
4299 1 30.0823 38.4428 31.4137
4323 1 27.0166 41.6118 31.368
3960 1 28.5941 40.0536 29.6985
3966 1 38.1121 39.9061 29.7369
4329 1 36.5055 41.6974 31.236
4304 1 38.0928 39.9857 32.9438
4306 1 41.2512 39.9179 32.8836
268367 1 8.03932 6.52361 34.4539
268369 1 11.0776 6.5933 34.6022
268707 1 11.207 6.50387 37.6697
268368 1 9.38701 8.23903 36.217
268372 1 15.9677 7.93919 36.0645
57437 1 20.7114 6.56116 34.4338
57436 1 19.0064 8.08064 36.1189
57777 1 23.7541 6.66048 37.671
57440 1 25.5799 8.06001 36.0641
57781 1 30.1367 6.6108 37.8447
57445 1 33.3681 6.48757 34.6137
57783 1 33.3992 6.62979 37.8033
57447 1 36.4745 6.44476 34.6254
57448 1 38.1981 8.16491 36.2935
57450 1 41.322 8.06316 36.2666
215691 1 7.89556 12.953 37.7959
215667 1 11.236 9.75615 37.6515
215693 1 11.1097 12.8616 37.8265
215331 1 14.2831 9.78044 34.6876
4733 1 17.4193 9.80861 37.663
4759 1 17.4277 12.8637 37.693
4397 1 20.8101 9.78136 34.4979
4423 1 20.7571 12.9357 34.4865
4761 1 20.8241 12.9016 37.7347
4403 1 30.1978 9.74575 34.6286
4427 1 27.1087 12.9183 34.7079
4739 1 27.0598 9.77673 37.7855
4765 1 27.0561 12.9427 37.7417
4767 1 30.094 13.0226 37.6862
4406 1 34.8506 11.35 36.2407
4771 1 36.5155 12.9256 37.7814
4409 1 39.7994 9.82809 34.5871
4773 1 39.7912 12.9561 37.6661
215717 1 7.87958 15.9292 37.7668
215354 1 9.6402 14.4109 36.0207
215356 1 12.6673 14.5053 36.128
215383 1 14.218 16.0938 34.4448
215358 1 15.9072 14.4933 36.0516
4785 1 17.3989 16.2018 37.8909
4449 1 20.6642 15.9914 34.539
4787 1 20.7002 16.0801 37.8352
4426 1 25.312 14.579 36.1699
4453 1 27.1066 16.1401 34.5434
4795 1 33.3494 16.103 37.728
4461 1 39.7714 16.154 34.6365
215404 1 6.4395 20.8785 36.1468
215380 1 9.63115 17.6007 36.1034
215745 1 11.028 19.4109 37.7693
215384 1 15.7657 17.7223 36.0973
4448 1 18.9847 17.6194 36.0992
4813 1 20.7443 19.1786 37.8674
4474 1 19.1453 20.9048 36.2713
4477 1 23.9855 19.3476 34.6657
4450 1 22.3336 17.6016 36.1252
4817 1 26.9064 19.2468 37.5777
4819 1 30.2222 19.0922 37.7867
4482 1 31.867 20.7649 36.1642
4823 1 36.467 19.3255 37.7143
4487 1 39.7966 19.292 34.5937
215433 1 11.0225 22.5277 34.7097
4499 1 17.3287 22.3295 34.6202
215773 1 14.1757 22.447 37.7701
4837 1 17.2903 22.4088 37.7614
4501 1 20.6701 22.472 34.54
4502 1 22.4242 24.0252 36.0988
4505 1 26.9185 22.3359 34.5296
4843 1 27.0675 22.4671 37.6745
4845 1 30.124 22.5385 37.7513
4506 1 28.5 24.1495 35.9616
4508 1 31.8472 24.1275 36.171
4512 1 38.1788 24.1549 36.116
4513 1 39.812 22.3736 34.591
4851 1 39.7899 22.3625 37.7483
4514 1 41.3737 24.1187 36.2671
215457 1 8.02431 25.6651 34.6446
215821 1 7.96928 28.7561 37.775
215485 1 10.979 28.6756 34.5703
215797 1 10.9726 25.7016 37.587
215487 1 14.2753 28.8508 34.504
4551 1 17.3249 28.7656 34.432
215462 1 15.7848 27.2052 36.2585
215825 1 14.2908 28.9681 37.7639
4527 1 20.6553 25.703 34.4545
4865 1 20.7422 25.6163 37.7648
4526 1 19.0152 27.3381 36.2293
4891 1 20.8902 28.8905 37.7547
4555 1 23.7873 28.8831 34.6029
4530 1 25.4021 27.0734 36.1804
4557 1 26.9449 28.8716 34.6279
4559 1 30.2214 28.751 34.4961
4869 1 27.0796 25.5168 37.8509
4561 1 33.294 28.7811 34.6304
4563 1 36.5363 28.7758 34.6404
4901 1 36.5272 28.6886 37.7433
4539 1 39.9504 25.8404 34.5152
215847 1 7.78363 32.102 37.8399
215511 1 11.1427 32.0222 34.4695
215486 1 12.5687 30.4316 36.1996
215510 1 9.50161 33.5967 36.1105
4915 1 17.3608 32.0488 37.8165
215514 1 15.809 33.6287 36.1583
4552 1 18.9978 30.3398 36.1958
4578 1 19.0797 33.6637 36.1232
4919 1 23.6749 31.9237 37.778
4580 1 22.2386 33.7155 36.0485
4582 1 25.1892 33.6623 36.11
4921 1 27.1188 32.095 37.6814
4923 1 30.0181 32.1383 37.8301
4560 1 31.7687 30.4871 36.2494
4589 1 36.5071 32.1485 34.4804
4591 1 39.563 32.0291 34.4553
4566 1 41.3402 30.4181 36.208
4929 1 39.6862 32.1236 37.6954
4592 1 41.3802 33.5882 36.1275
215536 1 9.5128 36.8191 36.1499
4604 1 19.095 36.7201 36.0908
4947 1 27.115 35.0828 37.6388
4610 1 28.5781 36.889 36.0514
4951 1 33.4178 35.1778 37.6479
4612 1 31.6773 36.8326 36.1902
4953 1 36.4886 35.2037 37.6413
215563 1 11.1238 38.5541 34.4513
215564 1 12.7139 39.9683 36.3208
215927 1 10.9986 41.6393 37.8057
215565 1 14.3632 38.4883 34.5688
215591 1 14.3685 41.5331 34.4869
4655 1 17.3789 41.4841 34.5956
4967 1 17.3628 38.4365 37.6856
4631 1 20.5327 38.6006 34.6228
4657 1 20.5817 41.5808 34.5735
4995 1 20.5353 41.5045 37.5784
4659 1 23.781 41.5298 34.634
4971 1 23.7897 38.4562 37.7165
4663 1 30.1416 41.5274 34.5007
5003 1 33.3497 41.6981 37.7736
4640 1 34.9628 40.0091 36.1203
5005 1 36.5373 41.6202 37.8335
4669 1 39.7739 41.6631 34.5823
4981 1 39.6366 38.4846 37.7855
269043 1 7.99701 6.54329 41.0383
269045 1 11.0239 6.52918 40.9563
268710 1 15.9198 8.11686 39.4017
58113 1 20.5674 6.65004 40.9294
58117 1 27.1807 6.50754 40.8825
58123 1 36.5975 6.77155 40.8509
57788 1 41.2878 8.22526 39.2525
216029 1 7.9697 12.9258 40.8938
216005 1 11.093 9.77784 40.9298
216033 1 14.0899 12.9556 41.055
215670 1 15.9115 11.3678 39.4455
5099 1 20.7891 13.0013 40.9427
5075 1 23.8313 9.74332 40.9912
5101 1 23.8221 12.9273 40.8989
5079 1 30.14 9.638 40.9821
4742 1 31.8154 11.3011 39.3249
5107 1 33.4961 12.9532 41.0049
5083 1 36.5262 9.70167 40.8937
5109 1 36.4381 12.9845 41.0003
5085 1 39.6847 9.64704 41.0677
216055 1 7.92106 15.9239 40.8792
216057 1 11.1368 15.9001 40.8006
5127 1 23.7587 15.9666 40.8566
5129 1 27.0835 16.0456 40.8633
5131 1 30.1097 16.1486 40.8154
5137 1 39.7588 16.056 40.8963
216081 1 7.95984 19.3589 40.8776
215720 1 12.6677 17.6708 39.2666
5149 1 17.494 19.1253 40.9048
215748 1 15.7678 20.7309 39.355
4816 1 25.4349 20.9362 39.382
5155 1 27.0806 19.122 40.9672
4798 1 37.9617 17.5823 39.3747
5161 1 36.5066 19.4152 40.9579
5163 1 39.7574 19.3473 40.8761
216107 1 7.85097 22.4039 40.9131
215770 1 9.52512 24.0033 39.3491
216137 1 14.2263 25.5038 40.9258
4838 1 19.1456 23.9862 39.3221
5179 1 23.6488 22.4795 41.0013
5185 1 33.3711 22.5244 40.6851
4850 1 38.1716 24.0296 39.3914
216159 1 7.97022 28.7229 40.923
216135 1 11.0589 25.6966 40.9872
215798 1 12.7292 27.15 39.2402
4864 1 18.9786 27.319 39.2982
5231 1 23.7396 28.8355 40.7906
4870 1 28.6111 27.3474 39.3037
5211 1 33.2284 25.5483 40.8881
4872 1 31.7417 27.3325 39.2091
4874 1 34.889 27.1331 39.3429
5215 1 39.6984 25.6407 41.0104
4878 1 41.4483 27.2067 39.3377
215822 1 9.55884 30.6143 39.3807
215824 1 12.5233 30.5227 39.3599
215850 1 12.5533 33.4933 39.334
5253 1 17.5029 32.1108 40.9584
4890 1 18.9678 30.3293 39.2983
4894 1 25.5448 30.453 39.2956
4920 1 25.4085 33.6541 39.3335
5261 1 30.1409 32.0338 40.868
4900 1 34.818 30.5381 39.1617
4902 1 38.1399 30.4299 39.1801
5265 1 36.5082 31.9447 41.0016
216211 1 7.84624 35.1204 40.9722
215876 1 12.5806 36.9445 39.3885
216215 1 14.2748 35.1448 40.8551
5279 1 17.4879 35.1904 40.9016
4943 1 20.6525 35.1797 37.9183
4948 1 28.5525 36.8083 39.4338
5291 1 36.3988 35.2032 40.9792
4956 1 41.2318 36.6865 39.3613
216263 1 7.95173 41.5167 40.867
215902 1 12.6683 39.9236 39.3527
216267 1 14.2967 41.6057 40.9763
5331 1 17.4011 41.532 40.962
5307 1 20.6092 38.3517 40.9279
5309 1 23.779 38.3465 40.7964
5335 1 24.0398 41.683 40.825
4974 1 28.5347 39.998 39.3117
5315 1 33.4169 38.4126 41.0801
4976 1 31.7354 39.9359 39.2811
5341 1 33.4658 41.6785 40.973
5317 1 36.512 38.4335 40.9189
4978 1 34.8292 39.9145 39.2499
5345 1 39.6526 41.6414 40.917
269381 1 7.89664 6.61319 44.0627
269046 1 12.7701 8.13078 42.5746
58449 1 17.4018 6.59371 44.0523
269386 1 15.7741 8.10287 45.741
58452 1 22.2208 8.23424 45.7854
58118 1 28.5518 8.0911 42.6053
58458 1 31.8045 8.15159 45.5699
58122 1 34.8886 8.17704 42.633
58463 1 39.7664 6.54215 44.035
58464 1 41.4243 8.16874 45.6939
216341 1 7.8302 9.68818 43.97
216342 1 9.50712 11.2706 45.7087
216344 1 12.6922 11.2014 45.6469
5409 1 17.4949 9.69816 44.1368
216008 1 15.9965 11.385 42.5146
5411 1 20.633 9.72483 44.0239
5412 1 22.3322 11.3283 45.7205
5414 1 25.424 11.4312 45.7225
5078 1 28.6489 11.4487 42.5291
216030 1 9.59699 14.5646 42.6079
216397 1 14.1849 16.0106 44.2174
5098 1 18.8915 14.4226 42.5998
5463 1 20.713 15.9732 44.1776
5467 1 27.0976 16.1328 44.1563
5442 1 28.5873 14.3548 45.794
5444 1 31.7661 14.5091 45.6997
5473 1 36.5476 16.0444 43.9936
5446 1 34.9873 14.4186 45.7277
216419 1 7.78987 19.2906 44.1307
216058 1 12.5709 17.6531 42.4926
216084 1 12.5198 20.8235 42.5269
216396 1 12.5106 17.679 45.6943
216060 1 15.7903 17.5297 42.5058
5487 1 17.3671 19.2297 44.138
5489 1 20.6863 19.204 44.0683
5126 1 22.364 17.6261 42.6278
5132 1 31.9315 17.6186 42.4717
5499 1 36.6474 19.4024 44.0431
5160 1 34.7961 20.9577 42.5026
5498 1 35.0064 20.8462 45.7487
5476 1 41.2943 17.856 45.665
216473 1 11.0679 25.5532 44.1138
216449 1 14.2831 22.4166 44.0802
5513 1 17.3671 22.32 44.1023
216475 1 14.1224 25.4918 44.0789
216450 1 15.9262 24.1918 45.6665
5176 1 19.0833 24.1165 42.5061
5517 1 23.7745 22.4279 44.1134
5518 1 25.3431 24.2404 45.7336
5182 1 28.5755 23.9915 42.5238
5184 1 31.8156 23.8367 42.6758
5527 1 39.6695 22.5186 44.0766
216474 1 12.7682 27.2687 45.7052
216138 1 15.88 27.2519 42.5523
5541 1 20.6136 25.7045 44.2253
5202 1 19.0447 27.2286 42.4288
5204 1 22.1629 27.1721 42.4869
5569 1 23.7742 28.876 44.1588
5206 1 25.4844 27.2149 42.5176
5542 1 22.3742 27.1197 45.8143
5545 1 27.1095 25.7108 44.1952
5549 1 33.3225 25.6327 44.1541
5210 1 31.6909 27.4438 42.5243
5551 1 36.5921 25.5781 44.0128
5552 1 38.1773 27.2744 45.7465
216160 1 9.5287 30.5562 42.4742
216162 1 12.6836 30.4846 42.5734
216500 1 12.7379 30.5025 45.578
216524 1 9.55563 33.5823 45.7207
216526 1 12.6346 33.5838 45.6564
216164 1 15.8339 30.4149 42.5865
216528 1 15.8002 33.5447 45.6539
5593 1 20.4788 31.8833 44.2019
5595 1 23.8149 32.0697 44.2076
5256 1 22.1161 33.631 42.5961
5234 1 28.6647 30.3562 42.6184
5597 1 26.95 32.066 44.1568
5238 1 34.7565 30.4069 42.5659
5602 1 34.8722 33.5363 45.6411
5605 1 39.6977 31.9738 44.0279
216212 1 9.59063 36.8324 42.3629
216550 1 9.45972 36.8081 45.816
5617 1 17.5217 35.2301 44.1349
5618 1 19.1351 36.8786 45.7413
5621 1 23.8439 35.1737 44.2525
5282 1 22.1397 36.7895 42.664
5623 1 26.989 35.2005 44.1754
5625 1 30.1898 35.2472 44.1404
5627 1 33.3393 35.2473 44.0332
5292 1 38.1462 36.7552 42.4724
5268 1 41.2803 33.7655 42.4146
5632 1 41.3288 36.8265 45.7806
216603 1 11.1277 41.5328 44.0924
216579 1 14.1902 38.3041 44.2479
5644 1 19.071 39.8456 45.7441
5647 1 23.8639 38.4154 44.198
5310 1 25.4598 39.9173 42.4333
5673 1 23.8968 41.6115 44.1428
5649 1 27.061 38.4528 44.203
5677 1 29.9955 41.6239 44.1681
5314 1 31.6594 40.0664 42.5746
5652 1 31.8101 40.1175 45.783
5655 1 36.4576 38.4054 44.0867
5657 1 39.7084 38.4199 44.0742
5683 1 39.6065 41.6036 44.0931
5658 1 41.3783 40.0071 45.6976
269719 1 7.79931 6.64886 47.208
58791 1 23.8916 6.51697 47.2879
58793 1 26.9609 6.59144 47.2612
58795 1 30.2633 6.65958 47.2522
58799 1 36.4307 6.58387 47.3306
216680 1 9.49758 11.3707 48.9182
5747 1 17.4802 9.71358 47.279
216709 1 14.3691 12.9185 47.273
5773 1 17.4731 12.8383 47.2253
5775 1 20.6468 12.9265 47.2095
6115 1 23.8558 12.7902 50.3646
5754 1 28.5699 11.3781 48.8057
5757 1 33.3175 9.71468 47.321
5759 1 36.474 9.72532 47.2683
5758 1 34.981 11.5028 48.8301
5760 1 38.1205 11.4108 48.919
5761 1 39.7947 9.91378 47.1919
216731 1 7.75989 16.0352 47.285
216708 1 12.5289 14.4134 48.8513
5799 1 17.4295 16.1032 47.3079
5801 1 20.7134 16.0702 47.2437
5803 1 23.7631 16.0283 47.2454
5782 1 31.6821 14.5429 48.7997
5811 1 36.5187 16.0868 47.4199
6149 1 36.487 16.0729 50.3558
6151 1 39.8178 16.0623 50.3051
216759 1 11.0118 19.3845 47.426
216734 1 12.7164 17.7118 48.8839
216760 1 12.8802 20.8305 48.9678
216761 1 14.4204 19.1987 47.1171
5825 1 17.4152 19.2054 47.282
5804 1 25.4079 17.6667 48.8538
5828 1 22.1319 20.8526 48.8121
5831 1 27.0224 19.2196 47.2679
5833 1 30.2143 19.2231 47.2427
5835 1 33.2646 19.2874 47.2918
216783 1 7.95768 22.3985 47.2423
216785 1 11.0868 22.4618 47.2921
216811 1 11.1383 25.4904 47.1738
216786 1 12.856 24.0828 48.9769
216787 1 14.3006 22.4635 47.1521
5854 1 22.1485 24.0776 48.8481
5856 1 25.3825 24.2076 48.8784
5857 1 26.8525 22.3595 47.3083
5861 1 33.2935 22.3605 47.3275
6199 1 33.3227 22.3476 50.2758
5860 1 31.5449 24.055 48.857
5863 1 36.6726 22.4541 47.3284
6201 1 36.6257 22.3913 50.3385
216835 1 7.9416 28.8944 47.2889
216810 1 9.50256 27.1601 48.8253
5877 1 17.4447 25.7367 47.3428
216839 1 14.2782 28.8452 47.4324
5905 1 20.6005 28.9095 47.1557
5880 1 22.2498 27.2089 48.8154
5882 1 25.3745 27.2382 48.8171
5911 1 30.2204 28.7395 47.2674
5887 1 33.2757 25.7118 47.2695
5915 1 36.4075 28.9978 47.314
5888 1 34.9481 27.2157 48.9416
5891 1 39.848 25.5341 47.2581
216863 1 11.0401 31.8751 47.4555
216864 1 12.6728 33.7009 48.9731
5904 1 18.9245 30.4652 48.8081
5933 1 23.6867 32.202 47.1886
5908 1 25.4163 30.4863 48.8465
5937 1 30.088 32.0657 47.367
5910 1 28.5949 30.3879 49.0312
5939 1 33.4703 31.9257 47.4241
5943 1 39.6365 32.0831 47.3427
216892 1 15.8545 36.7394 48.9133
5957 1 20.7307 35.0777 47.2414
5956 1 19.0781 36.8711 48.7849
5960 1 25.5016 36.7953 48.9834
5961 1 27.0513 35.1636 47.2541
5967 1 36.5037 35.2035 47.3047
5968 1 38.1209 36.8013 49.0248
5969 1 39.6082 35.1691 47.2698
216915 1 11.2442 38.4554 47.1921
6007 1 17.4018 41.7365 47.1581
216918 1 15.9776 39.9939 48.8542
6009 1 20.6915 41.6519 47.1975
5985 1 23.7592 38.4084 47.2673
5989 1 30.1932 38.3072 47.229
5988 1 28.4952 39.948 48.798
6019 1 36.5247 41.5544 47.3313
5992 1 34.7728 39.9317 48.8574
5994 1 38.115 39.9189 49.0793
5995 1 39.516 38.4414 47.1506
6021 1 39.6498 41.535 47.2848
5996 1 41.2435 39.891 48.956
270059 1 11.232 6.70713 50.4713
270058 1 9.37392 8.17932 52.0451
270399 1 14.3164 6.56281 53.5574
59127 1 20.5172 6.73306 50.4912
59465 1 20.5654 6.69699 53.6635
59128 1 22.4397 8.02599 52.0411
59131 1 26.9339 6.51157 50.4716
59469 1 26.9976 6.48234 53.7098
59471 1 30.2977 6.48789 53.7154
59135 1 33.3908 6.67403 50.4475
59140 1 41.2801 8.1184 51.9877
217018 1 9.34397 11.4048 52.0452
217021 1 14.1156 9.62819 50.4765
217022 1 15.9772 11.3167 52.0588
6087 1 20.7014 9.7975 50.5312
6451 1 20.7341 12.8276 53.5796
6453 1 23.7427 12.931 53.6441
6119 1 30.1405 12.8803 50.571
6429 1 27.0024 9.69864 53.7194
6431 1 30.176 9.78569 53.6198
6455 1 27.1994 13.0495 53.5697
6094 1 31.9342 11.3638 52.1555
6461 1 36.5293 12.7886 53.764
6098 1 38.1879 11.4415 51.9867
6100 1 41.2887 11.3821 52.099
217046 1 12.5774 14.368 52.1881
217073 1 14.269 15.9888 50.523
6137 1 17.4957 16.0933 50.376
217048 1 16.0103 14.4222 52.1684
6114 1 22.2543 14.6062 51.9643
6116 1 25.392 14.5514 52.0216
6479 1 23.8611 16.0921 53.6534
6143 1 27.085 16.0354 50.4165
6120 1 31.769 14.5991 52.0998
6122 1 35.0244 14.4572 52.1573
6126 1 41.2558 14.5495 52.1812
217095 1 7.9118 19.1809 50.4705
217097 1 11.0568 19.2583 50.531
217435 1 11.1311 19.1774 53.5766
217074 1 15.9333 17.7409 52.0532
6501 1 17.5015 19.3723 53.7543
6165 1 20.5975 19.1618 50.4439
6505 1 23.9676 19.2627 53.5525
6171 1 30.0998 19.2521 50.4467
6511 1 33.3146 19.2494 53.8029
6172 1 31.8113 20.8745 52.0554
6148 1 34.9685 17.7936 52.0753
6515 1 39.8511 19.3062 53.7264
217461 1 11.2475 22.4045 53.5427
217122 1 9.37659 23.8988 52.0498
6189 1 17.5713 22.4583 50.5864
217463 1 14.3328 22.4137 53.7225
6529 1 20.4923 22.3421 53.6569
6192 1 22.1758 24.0625 52.0663
6195 1 26.9305 22.3231 50.4672
6533 1 27.0666 22.3862 53.643
6198 1 31.7128 23.9752 52.0311
6539 1 36.5616 22.4481 53.6098
6200 1 34.8916 24.0059 52.0101
6541 1 39.7266 22.4175 53.7076
217149 1 11.1714 25.5925 50.6195
217175 1 11.1465 28.8853 50.4256
217487 1 11.1444 25.6782 53.6416
217513 1 11.1857 28.7056 53.7036
6215 1 17.5003 25.6929 50.536
217177 1 14.2471 28.7316 50.4261
6241 1 17.452 28.7034 50.5083
6553 1 17.5149 25.6098 53.5705
6583 1 23.7857 28.8043 53.7041
6221 1 27.0516 25.6467 50.4906
6222 1 28.6745 27.364 51.9989
6589 1 33.5435 28.6554 53.6686
6565 1 36.4097 25.7989 53.6258
6228 1 38.1489 27.1033 51.8573
6230 1 41.1566 27.1287 52.0594
6593 1 39.6247 28.9073 53.6157
217199 1 7.97142 32.092 50.2745
217174 1 9.39293 30.4226 52.1855
217200 1 9.49437 33.6318 52.0788
6267 1 17.3135 32.1464 50.5207
217178 1 15.7909 30.3069 52.1369
217541 1 14.2751 32.122 53.6695
6269 1 20.6749 32.0921 50.4351
6271 1 23.7974 32.1558 50.5317
6273 1 27.0406 32.2025 50.5688
6250 1 31.6319 30.3323 52.0757
6615 1 33.2688 32.1663 53.6995
6252 1 34.9624 30.4421 52.0237
6617 1 36.6427 32.0663 53.7307
6281 1 39.725 32.0329 50.471
217563 1 7.87855 35.3148 53.667
217565 1 11.0863 35.2508 53.796
217228 1 12.591 36.7466 51.918
217567 1 14.2328 35.1769 53.6666
6631 1 17.3894 35.1404 53.6716
6295 1 20.6551 35.1335 50.4087
6633 1 20.5256 35.1972 53.7688
6294 1 19.0173 36.8594 52.0728
6296 1 22.2214 36.7696 52.0362
6301 1 30.1343 35.2404 50.5579
6641 1 33.2779 35.1692 53.5983
6305 1 36.4047 35.1878 50.496
6645 1 39.8156 35.2074 53.6206
217251 1 7.68856 38.3896 50.5152
217615 1 7.83225 41.506 53.7075
217279 1 11.0527 41.5512 50.429
217617 1 11.0863 41.459 53.6785
217281 1 14.0834 41.5368 50.3226
217593 1 14.1928 38.5231 53.6684
217256 1 15.9348 40.0224 51.9566
6320 1 19.0632 39.9072 52.0349
6685 1 20.645 41.6516 53.6357
6323 1 23.8055 38.4887 50.4518
6661 1 23.8644 38.4314 53.5707
6353 1 30.0659 41.5064 50.5725
6663 1 27.0059 38.3992 53.5776
6665 1 30.191 38.4838 53.5408
6689 1 27.0327 41.6548 53.5652
6329 1 33.3005 38.2879 50.626
6669 1 36.4995 38.2943 53.5819
6330 1 34.9031 40.0553 52.0965
6333 1 39.8188 38.2478 50.63
6334 1 41.3761 40.0428 51.9945
270733 1 7.88816 6.66982 56.8836
270396 1 9.56782 8.21537 55.2047
270398 1 12.5956 8.17157 55.2167
270400 1 15.9269 8.223 55.1841
59803 1 20.6517 6.57137 56.8718
59466 1 22.3735 8.11642 55.2756
59474 1 34.9467 8.14255 55.2352
59476 1 38.1116 8.12893 55.1942
59815 1 39.7759 6.62537 56.9735
217719 1 7.96529 12.9138 56.7666
217358 1 12.7233 11.4276 55.2123
217721 1 10.9158 12.9493 56.6689
6763 1 20.6565 9.65037 56.9469
6428 1 25.4345 11.4673 55.3519
6791 1 23.6938 13.0477 56.8854
6767 1 26.9082 9.60732 56.7362
6771 1 33.3867 9.81502 56.9196
6432 1 31.8601 11.4028 55.2109
6799 1 36.643 12.877 56.7175
6801 1 39.7446 12.9257 56.8039
217747 1 11.0741 16.0532 56.7374
217749 1 14.3527 16.0673 56.7184
6813 1 17.3753 16.0709 56.8206
6450 1 18.9958 14.4858 55.1272
6815 1 20.7058 15.9992 56.8558
6458 1 31.8417 14.5555 55.2942
6462 1 38.1469 14.6433 55.0812
6827 1 39.7864 16.0911 56.8803
217406 1 6.488 17.5939 55.3052
217408 1 9.44106 17.7133 55.3439
217436 1 12.6075 20.787 55.33
217775 1 14.3604 19.2845 56.782
6841 1 20.5053 19.2062 56.8078
6843 1 23.9082 19.1743 56.9062
6480 1 25.5238 17.5677 55.297
6506 1 25.465 20.9119 55.3921
6482 1 28.5754 17.6289 55.2623
6849 1 33.3035 19.2879 56.8684
6514 1 38.036 20.8013 55.2609
6853 1 39.8823 19.2503 56.8026
217460 1 9.50008 23.8978 55.1784
6867 1 20.6197 22.4821 56.8914
6528 1 19.0595 24.2019 55.281
6869 1 23.6314 22.5399 56.921
6532 1 25.4001 24.1088 55.3614
6873 1 30.2364 22.4496 56.7181
6877 1 36.5503 22.5875 56.9642
6538 1 34.9435 24.0272 55.2455
6542 1 41.1144 24.2755 55.2047
217825 1 11.0725 25.6407 56.8191
217851 1 11.0924 28.6829 56.8259
217490 1 15.8664 27.2085 55.2283
6893 1 20.6387 25.7215 56.982
6919 1 20.6176 28.9153 56.9593
6921 1 23.7618 28.9801 56.8791
6925 1 30.052 28.9664 56.8739
6901 1 33.3336 25.6282 56.8163
6562 1 31.6513 27.3075 55.2139
6566 1 38.2375 27.1102 55.4312
217514 1 12.6658 30.4663 55.279
217538 1 9.49207 33.515 55.2965
6943 1 17.3604 32.052 56.7983
6580 1 19.0372 30.3642 55.1377
6945 1 20.6865 32.049 56.8359
6608 1 22.3275 33.6281 55.1357
6610 1 25.3303 33.6618 55.2016
6949 1 27.0528 31.8956 56.8863
6612 1 28.6558 33.6572 55.1861
6953 1 33.3058 32.091 56.8131
6955 1 36.4772 32.0895 56.8046
6594 1 41.2583 30.3646 55.366
6632 1 18.9497 36.961 55.1714
6634 1 22.3276 36.7987 55.2723
6975 1 27.0572 35.2566 56.8969
6640 1 31.729 36.7919 55.3058
6642 1 34.9099 36.8297 55.3134
6644 1 38.1331 36.7635 55.3171
217955 1 10.9742 41.4815 56.9338
6995 1 17.4042 38.5043 56.9024
6997 1 20.5597 38.4475 56.9226
7025 1 23.8944 41.7942 56.7503
7029 1 30.1204 41.566 56.6016
6668 1 34.9148 39.9685 55.2324
6672 1 41.2764 40.0856 55.3869
212550 1 15.7505 43.2212 7.39549
1618 1 25.4449 43.2534 7.3487
1626 1 38.1901 43.2019 7.35101
212572 1 9.52408 46.3664 7.51072
212598 1 9.57442 49.5535 7.61774
212602 1 15.719 49.4968 7.46157
1668 1 22.1344 49.5956 7.45245
1646 1 28.389 46.2958 7.59269
1672 1 28.5135 49.5783 7.61178
1648 1 31.7414 46.3237 7.46422
1652 1 38.1831 46.2598 7.28026
1680 1 41.3095 49.5003 7.40901
229866 1 15.6944 52.6844 7.42458
18930 1 19.2035 52.6458 7.53441
18934 1 25.2864 52.6784 7.58481
19279 1 36.5471 51.0025 8.91586
18940 1 34.9329 52.8431 7.45126
19307 1 39.8138 54.3911 8.9023
18958 1 22.1661 55.8538 7.59432
19327 1 30.3575 57.42 8.85787
212884 1 9.39403 43.0086 10.6144
212913 1 14.1484 44.7047 9.1148
212888 1 15.8577 43.1149 10.5859
1979 1 20.5744 44.6997 8.90216
2317 1 20.6358 44.8269 12.3177
1981 1 23.8617 44.7239 9.10041
1985 1 30.0955 44.6482 9.07856
2321 1 26.9995 44.7362 12.1595
1987 1 33.4924 44.7316 9.02296
2325 1 33.2498 44.8301 12.2763
1991 1 39.7734 44.7926 9.13413
212910 1 9.42663 46.4291 10.7297
212912 1 12.5986 46.4964 10.6459
212938 1 12.5579 49.4931 10.5395
2005 1 20.5328 47.9918 9.0486
2007 1 23.8688 47.9626 9.09076
2011 1 30.2677 47.9201 9.07681
2349 1 30.2724 47.8924 12.3113
2010 1 28.4735 49.5449 10.5832
2012 1 31.8135 49.613 10.6585
2015 1 36.5556 47.8901 8.97143
1988 1 35.0506 46.3645 10.8131
2355 1 39.6382 47.8702 12.2672
1992 1 41.4037 46.4406 10.7279
230563 1 7.96326 54.2977 12.1633
230227 1 11.0097 54.4149 8.9935
230200 1 9.44522 52.5845 10.4679
230565 1 11.0494 54.362 12.1897
19267 1 17.3815 51.047 9.10286
19293 1 17.3671 54.3705 8.98558
230541 1 14.2863 51.042 12.2104
19605 1 17.3609 51.0538 12.1747
230567 1 14.2554 54.3907 12.2177
19607 1 20.5791 51.0497 12.326
19270 1 22.1849 52.635 10.5044
19635 1 23.7256 54.3236 12.2911
19637 1 26.9588 54.2552 12.22
19639 1 30.0942 54.1782 12.1808
19276 1 31.8353 52.6562 10.6525
19278 1 34.9413 52.6858 10.7153
19280 1 38.0636 52.7755 10.649
19282 1 41.4358 52.8534 10.6675
230251 1 7.93758 57.5389 9.05232
230589 1 7.9267 57.5801 12.1556
230228 1 12.6628 55.9404 10.6137
230593 1 14.3373 57.473 12.2554
19294 1 18.9984 55.8699 10.6855
19300 1 28.5379 56.0469 10.5792
19663 1 26.9473 57.555 12.341
19665 1 30.1679 57.5628 12.3424
19302 1 31.812 55.8655 10.7406
19669 1 36.5132 57.4431 12.2358
213587 1 10.9991 44.6381 15.3938
213224 1 12.7079 43.1571 13.9292
2653 1 17.3618 44.6671 15.5119
2628 1 19.1139 43.1246 17.0262
2657 1 23.7784 44.783 15.3538
2630 1 22.2261 43.1947 17.0992
2636 1 31.7009 43.2253 16.9844
2300 1 34.8906 43.3391 13.9732
2640 1 38.1219 43.1877 17.0231
213274 1 9.49069 49.3267 13.6909
213586 1 9.6462 46.3475 16.9418
213252 1 15.7886 46.3243 13.8973
213615 1 14.2155 48.007 15.4025
2316 1 18.9276 46.421 13.9411
2681 1 20.7349 48.0393 15.2542
2680 1 18.9508 49.3995 17.0642
2346 1 25.3628 49.6592 13.8235
2658 1 25.3674 46.2689 17.0739
2685 1 26.9567 47.9314 15.4806
2687 1 30.3004 47.9884 15.4844
2348 1 28.4932 49.6069 13.8609
2689 1 33.1903 47.9895 15.45
2328 1 37.9085 46.3372 13.8716
2664 1 34.9735 46.3031 16.9383
2330 1 41.5399 46.4119 13.881
2693 1 39.6663 47.9555 15.4096
2668 1 41.3428 46.3266 17.02
2694 1 41.4327 49.4782 16.9683
230875 1 7.9755 51.0063 15.3999
230877 1 11.0289 50.9636 15.3956
230538 1 9.57835 52.7879 13.915
230540 1 12.6991 52.7128 13.9039
19943 1 17.4378 51.1086 15.4111
19971 1 20.7291 54.1497 15.4937
19610 1 25.3543 52.5362 13.8153
19948 1 25.3718 52.5986 17.0709
19977 1 30.2783 54.2509 15.4198
19950 1 28.57 52.6845 17.0487
19955 1 36.6275 51.168 15.5695
19616 1 34.8993 52.7298 13.85
19618 1 38.1379 52.7922 13.8075
19954 1 34.8111 52.8148 17.0368
19957 1 39.7183 51.1328 15.4346
19958 1 41.2618 52.7951 17.0613
230905 1 14.2107 54.5205 15.4232
230568 1 16.0341 55.8163 13.7744
19632 1 18.98 55.8644 13.8049
19970 1 19.0568 55.9767 17.01
19974 1 25.5272 55.8684 17.1614
20001 1 27.0442 57.4927 15.3822
19642 1 34.8419 55.7829 14.021
20007 1 36.627 57.4645 15.4881
19644 1 38.2377 55.748 13.8625
19646 1 41.2946 55.762 13.7527
19984 1 41.2216 55.7864 17.0383
213927 1 14.3178 44.6659 18.5902
2968 1 22.2994 43.0808 20.201
2997 1 27.0195 44.7297 18.6815
2972 1 28.6295 43.0132 20.0436
2976 1 34.9278 43.21 20.1574
2978 1 38.0969 43.2021 20.186
213949 1 7.9565 47.829 18.5011
213950 1 9.53602 49.4904 20.1263
213953 1 14.3047 47.9123 18.558
213954 1 16.0179 49.5588 20.1821
3019 1 20.7077 47.9212 18.7499
3021 1 23.7497 48.0078 18.7137
3023 1 26.9843 48.0522 18.7119
2998 1 28.7534 46.3885 20.1832
3026 1 31.8262 49.5501 20.2729
3029 1 36.6368 48.0145 18.6838
3031 1 39.6282 47.9715 18.7245
3032 1 41.2217 49.583 20.3224
231215 1 11.1061 51.1636 18.5633
231214 1 9.40534 52.8194 20.0044
231243 1 14.2752 54.3927 18.5496
20307 1 17.3573 54.4058 18.5823
231218 1 15.9836 52.5666 20.1172
20283 1 20.63 51.216 18.5753
20309 1 20.6819 54.1819 18.4846
20311 1 23.6005 54.3132 18.512
20287 1 27.0666 51.0427 18.8018
19952 1 31.7825 52.7096 17.238
20319 1 36.5662 54.3074 18.6109
20292 1 34.7384 52.6386 20.1105
20294 1 38.2949 52.727 20.2837
231265 1 7.96909 57.61 18.5994
231242 1 12.6795 55.9569 20.2053
20308 1 19.1387 55.9544 20.1292
20312 1 25.4562 55.8124 20.1472
20341 1 30.2514 57.4906 18.5548
20320 1 38.2132 55.8142 20.2369
20347 1 39.7323 57.6286 18.5889
20322 1 41.1842 55.7799 20.1626
214599 1 7.79947 44.681 25.0721
214263 1 11.0578 44.6367 21.608
214603 1 14.3277 44.6782 25.0284
214240 1 15.9537 43.1745 23.3833
3333 1 23.8049 44.8689 21.8395
3306 1 22.1568 43.1115 23.5416
3335 1 27.0059 44.7144 21.83
3337 1 30.2438 44.6285 21.8591
3673 1 26.9407 44.7746 24.9185
3679 1 36.5489 44.8386 25.0206
3343 1 39.6451 44.9258 21.8117
3318 1 41.315 43.2094 23.4662
214287 1 7.98541 47.8251 21.6891
214625 1 7.86715 47.9082 25.0613
214264 1 12.6511 46.344 23.2805
214292 1 16.0207 49.4537 23.3375
3695 1 20.6431 47.8922 25.0679
3356 1 19.0102 49.435 23.2561
3359 1 23.815 47.9744 21.7439
3358 1 22.2014 49.5502 23.3875
3361 1 26.9851 48.036 21.7215
3701 1 30.3225 47.8166 24.9393
3367 1 36.6654 47.9176 21.7275
3366 1 34.876 49.496 23.4152
3368 1 38.0457 49.6348 23.4577
3707 1 39.7729 48.0446 24.9526
231577 1 7.84315 54.4255 21.7371
231891 1 11.0981 51.1355 24.95
231554 1 12.7121 52.7783 23.3442
231581 1 14.3946 54.2753 21.6811
231919 1 14.4114 54.3217 24.9155
20620 1 19.0155 52.7833 23.2254
20624 1 25.2982 52.6259 23.4137
20627 1 30.022 51.1523 21.728
20651 1 27.0924 54.1288 21.8094
20628 1 31.7656 52.5798 23.3642
20993 1 33.4174 54.2772 24.8987
20657 1 36.4167 54.1879 21.8298
20634 1 41.32 52.7862 23.3434
231605 1 10.9617 57.5414 21.7476
231580 1 12.7358 55.9582 23.2829
20671 1 17.4227 57.4481 21.8054
231945 1 14.372 57.5063 24.8214
20648 1 22.1197 55.8562 23.2367
21013 1 23.8112 57.4437 24.9585
20677 1 26.9814 57.5082 21.8682
20679 1 30.2566 57.5272 21.7961
21017 1 30.1696 57.585 24.975
21019 1 33.4339 57.6466 25.0131
20683 1 36.4757 57.5999 21.7007
20658 1 38.1391 55.8926 23.329
21023 1 39.7953 57.5203 25.0365
214937 1 7.75571 44.7264 28.0604
4005 1 17.4594 44.6937 28.1515
3642 1 19.1966 43.1921 26.4429
4009 1 23.8651 44.8782 28.1309
3982 1 22.1059 43.2014 29.5894
3650 1 31.7011 43.208 26.6891
4017 1 36.5237 44.7507 28.1669
214626 1 9.62095 49.5361 26.7037
4033 1 20.672 47.8611 28.009
3698 1 25.4948 49.6487 26.4335
4039 1 30.2623 47.8517 28.1313
3700 1 28.5277 49.5311 26.4444
4041 1 33.3346 47.9033 28.139
3704 1 34.9491 49.544 26.3905
3682 1 41.229 46.2281 26.6525
4045 1 39.8445 48.16 28.1558
21321 1 17.5407 54.3224 28.1629
21299 1 23.7153 51.0849 28.2082
20960 1 22.2335 52.7598 26.6047
21300 1 25.4998 52.7783 29.5494
21303 1 30.2441 51.1473 28.1831
20964 1 28.5094 52.6729 26.5632
21329 1 30.1915 54.3202 28.2154
21309 1 39.782 51.222 28.1552
21335 1 39.7656 54.3469 28.1285
20972 1 41.4559 52.841 26.5346
231916 1 9.48307 55.831 26.5783
232281 1 10.9443 57.6337 28.2333
231920 1 15.8729 56.032 26.6851
20984 1 19.1036 55.9675 26.6358
20988 1 25.3937 55.7436 26.6687
21353 1 27.0295 57.5403 28.1936
20994 1 34.9817 55.8812 26.6739
21332 1 35.0168 55.8302 29.6571
215277 1 11.186 44.6964 31.3335
215279 1 14.3112 44.7698 31.325
4347 1 23.8346 44.7103 31.3033
4322 1 25.4197 43.1745 33.0212
4324 1 28.6507 43.3532 32.9534
4353 1 33.3742 44.7785 31.303
4357 1 39.6681 44.6494 31.3265
4332 1 41.4125 43.205 32.9389
215301 1 7.90277 47.9377 31.383
214966 1 12.6539 49.4627 29.6826
215280 1 16.0528 46.2984 33.0357
4006 1 19.1172 46.2921 29.8747
4034 1 22.1717 49.4173 29.8511
4036 1 25.4289 49.5134 29.7369
4346 1 22.2799 46.4742 32.9199
4348 1 25.4068 46.4301 33.1006
4374 1 25.3427 49.4353 33.0471
4012 1 28.6039 46.2725 29.7587
4376 1 28.5624 49.4755 32.9637
4352 1 31.6682 46.3296 32.9738
4044 1 38.0708 49.6066 29.7642
4383 1 39.8447 48.1111 31.3714
232591 1 7.86918 54.2268 31.3291
232593 1 11.0199 54.3258 31.3161
232568 1 12.6666 52.7457 32.9741
21633 1 17.4773 51.0447 31.3901
232232 1 15.9185 52.718 29.7764
21296 1 19.1464 52.6798 29.7243
21634 1 19.1271 52.7929 32.9035
21636 1 22.2647 52.7842 32.9955
21639 1 26.9029 51.2028 31.4499
21665 1 27.0013 54.3426 31.4298
21643 1 33.3932 51.2088 31.2693
21642 1 31.6901 52.8558 33.0137
21308 1 37.9912 52.8509 29.7788
21644 1 34.9176 52.8517 32.9912
21646 1 38.1209 52.8298 32.9245
21673 1 39.8238 54.3639 31.3075
21648 1 41.3799 52.7849 32.9782
232256 1 12.7421 55.9678 29.7839
232592 1 9.38721 55.9485 32.9727
232594 1 12.735 55.8405 32.8645
232258 1 15.7796 56.0136 29.8072
21685 1 17.4108 57.5529 31.4539
21322 1 19.2288 56.0141 29.7442
21660 1 19.2011 55.9205 32.9229
21664 1 25.2761 55.8586 33.1282
21691 1 27.0094 57.3675 31.3805
21693 1 30.1018 57.4091 31.3389
21695 1 33.3817 57.614 31.2496
21668 1 31.7462 55.8365 32.9944
21670 1 34.9659 55.8945 33.0108
21699 1 39.8038 57.5477 31.4693
215613 1 7.77099 44.7359 34.5474
215615 1 11.2375 44.7881 34.5346
215617 1 14.3071 44.8023 34.593
5021 1 20.5233 44.7532 37.6794
4658 1 22.297 43.2266 36.2455
4660 1 25.4901 43.2597 36.2004
4664 1 31.8238 43.3285 36.06
4693 1 36.5131 44.7912 34.4319
4695 1 39.7233 44.722 34.5105
5033 1 39.7992 44.7916 37.7771
215977 1 7.86154 47.8377 37.6944
215641 1 11.2116 47.8065 34.5299
215979 1 11.0931 47.8506 37.7583
215640 1 9.42737 49.5583 36.0567
215981 1 14.3653 47.8679 37.5703
4709 1 20.6449 48.0219 34.5549
4682 1 18.9536 46.3981 36.0427
5049 1 23.7958 48.101 37.7467
4688 1 28.4577 46.3851 36.1942
4714 1 28.4805 49.5064 36.218
4690 1 31.8173 46.3085 36.1529
4719 1 36.3829 48.0144 34.4906
5057 1 36.4951 47.9395 37.7468
4694 1 38.1736 46.4421 36.1278
4696 1 41.3772 46.5514 36.0247
232903 1 7.82658 51.3096 34.4533
233267 1 7.84617 54.3648 37.711
233243 1 11.0691 51.1157 37.7507
232906 1 12.6008 52.6707 36.0271
232907 1 14.4127 51.1176 34.5724
21971 1 17.497 51.1465 34.5995
232933 1 14.4075 54.2751 34.5714
233271 1 14.1941 54.3666 37.7052
22335 1 17.565 54.4563 37.5404
22311 1 20.7273 51.09 37.5892
21976 1 25.4449 52.8711 36.0637
21979 1 30.2027 51.0409 34.617
22315 1 26.8328 51.1493 37.7501
22317 1 30.2737 51.0571 37.7437
21983 1 36.4519 51.174 34.6689
21986 1 41.3063 52.8294 36.0016
22349 1 39.7872 54.3475 37.7522
233293 1 7.83632 57.5735 37.8003
232957 1 11.0623 57.6005 34.3678
232932 1 12.5715 55.9072 36.0075
232959 1 14.2949 57.5281 34.5149
22023 1 17.3836 57.4429 34.5822
22369 1 30.0648 57.3348 37.6422
22371 1 33.3503 57.4253 37.6123
22008 1 34.9968 55.8597 36.0955
22010 1 38.0636 55.9233 36.1123
22037 1 39.8828 57.4751 34.4852
22375 1 39.7522 57.4644 37.7571
216291 1 11.0422 44.6933 40.9114
215930 1 15.824 43.2345 39.3458
5359 1 20.7639 44.8755 40.982
4996 1 22.1969 43.1333 39.2977
5000 1 28.5716 43.2593 39.3976
5369 1 36.4779 44.8034 41.0752
215954 1 12.7847 46.3506 39.4517
215956 1 15.8893 46.3592 39.4892
215982 1 15.7957 49.5533 39.384
5020 1 18.958 46.3858 39.4246
5024 1 25.5275 46.3176 39.2576
5050 1 25.6041 49.4507 39.4615
5391 1 30.1637 48.0579 41.0378
5028 1 31.7241 46.3292 39.3285
5393 1 33.3563 48.0257 41.0015
5056 1 35.018 49.6027 39.405
5058 1 38.1206 49.5046 39.3583
5034 1 41.3565 46.4637 39.4646
233244 1 12.7121 52.548 39.4212
233246 1 15.8928 52.6963 39.2696
22310 1 19.0082 52.6658 39.2899
22651 1 23.8807 51.0965 40.8105
22312 1 22.1192 52.5801 39.3462
22677 1 23.7371 54.3542 40.8542
22655 1 30.2188 51.1034 41.071
22318 1 31.7958 52.7924 39.4027
22322 1 37.9901 52.8404 39.4282
233631 1 7.78587 57.4874 40.893
233607 1 11.1294 54.4966 40.9201
233270 1 12.7243 56.1676 39.3463
233272 1 15.8374 55.9815 39.3425
22699 1 17.4848 57.5759 40.9554
22336 1 19.0936 55.9497 39.3692
22340 1 25.4866 55.8935 39.2918
22344 1 31.8685 55.8734 39.4666
22346 1 34.962 55.8246 39.4075
216264 1 9.40491 43.0614 42.5989
5695 1 17.3198 44.7379 44.2145
5332 1 19.085 43.2432 42.4597
5697 1 20.7634 44.8509 44.2328
5674 1 25.4718 43.2138 45.7601
5338 1 28.5731 43.2631 42.4281
5703 1 30.1082 44.793 44.3096
5680 1 34.8903 43.1505 45.6582
216290 1 9.45046 46.4614 42.4818
216318 1 12.6776 49.5916 42.2901
216630 1 12.6039 46.3369 45.7577
216656 1 12.58 49.6419 45.7981
216657 1 14.241 47.8891 44.102
216294 1 15.9107 46.3531 42.3476
216320 1 15.7981 49.4886 42.3613
5722 1 18.9127 49.4957 45.7643
5386 1 22.2053 49.5152 42.4873
5388 1 25.4599 49.4815 42.562
5700 1 25.3764 46.3528 45.691
5724 1 22.3335 49.3869 45.659
5364 1 28.4949 46.2171 42.4228
5366 1 31.7751 46.2866 42.5857
5730 1 31.7713 49.4629 45.7239
5733 1 36.5707 47.8729 44.0794
5396 1 38.011 49.6502 42.4618
5706 1 34.8276 46.3959 45.7098
5398 1 41.2561 49.4798 42.4263
5736 1 41.2999 49.5344 45.7449
233917 1 7.93884 51.0996 44.0085
233580 1 9.46255 52.8778 42.4227
233918 1 9.51968 52.8426 45.6658
22985 1 17.4416 51.1701 43.9798
233922 1 15.7618 52.6786 45.7084
22987 1 20.5775 51.116 44.1744
22648 1 19.1119 52.7717 42.4083
22652 1 25.4827 52.7358 42.5471
23019 1 30.1988 54.1986 43.9921
22658 1 35.0185 52.6852 42.4604
23023 1 36.5239 54.392 44.1444
22999 1 39.5526 51.1433 44.2058
22662 1 41.1836 52.8178 42.4967
233946 1 12.5453 55.7939 45.5857
233610 1 15.8526 55.8876 42.5165
233948 1 15.9427 55.9749 45.6445
23039 1 20.7598 57.3572 44.1049
23041 1 23.8043 57.4067 44.1455
22680 1 28.4231 55.8816 42.4881
23043 1 26.9563 57.6044 44.246
22682 1 31.9252 55.9489 42.4825
23020 1 31.8481 55.9864 45.7094
22684 1 34.8433 55.9805 42.3989
23022 1 34.9117 56.0207 45.834
23024 1 37.9336 56.0332 45.9652
23025 1 39.5603 54.4541 44.1774
23051 1 39.6739 57.4098 44.0802
216967 1 10.9509 44.6633 47.2598
216969 1 14.364 44.6156 47.3019
6033 1 17.4072 44.7097 47.2328
6010 1 22.2746 43.2192 48.8951
6012 1 25.3725 43.096 48.8295
6016 1 31.7574 43.1138 48.918
6047 1 39.7405 44.8059 47.3471
216991 1 7.87894 47.9148 47.348
216994 1 12.6699 49.5873 48.8362
216970 1 15.8072 46.4685 48.8909
216996 1 15.8274 49.6092 48.8253
6061 1 20.674 47.7539 47.1898
6038 1 25.4173 46.3999 48.8033
6065 1 27.2284 47.9009 47.217
6042 1 31.7916 46.3192 48.9564
234255 1 7.80382 51.1551 47.3399
234285 1 14.2143 54.3486 47.2579
23351 1 20.6167 54.3311 47.2814
23324 1 18.9311 52.6195 48.7389
23327 1 23.7 51.2483 47.2374
23329 1 27.0778 51.0453 47.283
23355 1 26.992 54.2991 47.2795
23333 1 33.4465 51.1286 47.3239
23359 1 33.4267 54.1469 47.2575
23332 1 31.7073 52.6764 48.8704
23335 1 36.5009 51.089 47.3534
23363 1 39.6435 54.2571 47.2789
23675 1 39.5772 51.1497 50.3521
234307 1 7.78636 57.4704 47.2665
234282 1 9.53549 55.8617 48.9074
234286 1 15.8908 55.9619 48.8625
23715 1 20.5713 57.4623 50.2688
23379 1 23.7793 57.3681 47.1757
23356 1 28.4785 56.085 48.9262
217305 1 10.9546 44.7344 50.4373
217282 1 15.8566 43.0657 51.954
217645 1 14.2553 44.8459 53.6353
6348 1 22.302 43.2259 51.9692
6377 1 27.0322 44.6609 50.4602
6717 1 30.0283 44.6625 53.5758
6383 1 36.3339 44.7238 50.3675
6356 1 34.7542 43.0985 52.1449
6360 1 41.3155 43.0994 52.0256
217329 1 7.85254 47.937 50.4534
217667 1 7.79425 47.9849 53.6056
217331 1 10.9799 47.8957 50.4542
217669 1 11.1781 47.9331 53.6077
6397 1 17.4394 47.9346 50.5493
217334 1 15.7678 49.6196 52.0248
6399 1 20.676 47.8847 50.3649
6372 1 19.183 46.3374 52.0928
6398 1 19.1158 49.6219 52.1493
6401 1 23.6696 47.8855 50.3411
6376 1 25.3537 46.4166 52.1082
6400 1 22.1462 49.5124 52.1467
6402 1 25.3962 49.3847 51.9282
6405 1 30.139 48.0659 50.4076
6741 1 27.0415 48.0744 53.7162
6743 1 30.1368 48.1059 53.6099
6745 1 33.2016 48.0183 53.6299
6409 1 36.4707 48.0599 50.3657
6408 1 34.8268 49.6 52.0871
6411 1 39.6169 48.0286 50.3578
6386 1 41.27 46.4335 51.9466
6749 1 39.5898 48.0944 53.6719
234621 1 11.1247 54.3085 50.6183
234623 1 14.1695 54.2472 50.5875
23687 1 17.4735 54.2134 50.5134
234961 1 14.1825 54.307 53.5833
23663 1 20.6323 51.2338 50.39
23689 1 20.5783 54.2811 50.3657
24027 1 20.623 54.3052 53.6757
24003 1 23.848 51.0266 53.6773
23666 1 25.2949 52.8783 52.0563
23667 1 27.05 51.0883 50.396
23669 1 30.1217 50.9958 50.4639
23693 1 27.0666 54.2324 50.3633
23695 1 30.1252 54.3113 50.4337
24033 1 30.2218 54.421 53.6484
23671 1 33.3358 51.0734 50.3583
23699 1 36.4082 54.2475 50.4279
24011 1 36.6723 51.1257 53.7022
23676 1 41.1586 52.8968 51.9782
234645 1 7.81408 57.4332 50.4696
234987 1 14.2162 57.4043 53.6784
24051 1 17.3086 57.509 53.6244
24055 1 23.8204 57.4509 53.7009
23721 1 30.272 57.4338 50.547
24057 1 26.8988 57.5008 53.62
23723 1 33.3936 57.4629 50.5578
24035 1 33.3192 54.5071 53.6443
23725 1 36.3598 57.5516 50.5074
23700 1 38.2164 55.8545 51.9556
24065 1 39.626 57.6053 53.7732
217979 1 7.82349 44.6168 56.8769
217620 1 15.8062 43.0587 55.3881
217983 1 14.1605 44.9418 56.8936
7053 1 26.9134 44.6095 56.7321
6692 1 31.8567 43.1845 55.0654
7057 1 33.307 44.7588 56.9566
6696 1 38.03 43.1411 55.2576
217668 1 9.5458 49.4781 55.2619
218009 1 14.209 48.0262 56.8458
7073 1 17.5161 48.0339 56.852
217672 1 15.9174 49.646 55.1623
7075 1 20.6076 48.0212 56.824
6712 1 22.3221 46.4004 55.1575
6718 1 31.6966 46.3126 55.137
7083 1 33.2239 47.8617 56.8932
7085 1 36.5041 47.8731 56.8728
6746 1 34.8173 49.6268 55.2779
6724 1 41.3093 46.3899 55.2656
6750 1 41.3723 49.6234 55.3329
234932 1 9.42092 52.801 55.1668
234934 1 12.6081 52.6784 55.2298
235299 1 14.1889 54.4416 56.8334
24363 1 17.4356 54.3716 56.9051
24365 1 20.5635 54.3137 56.8541
24004 1 25.4238 52.7709 55.225
24345 1 30.0798 51.0853 56.7659
24349 1 36.5893 51.3063 56.8274
24010 1 34.7124 52.6398 55.1913
24375 1 36.506 54.286 56.782
24014 1 41.3044 52.7759 55.2731
24377 1 39.6218 54.394 56.876
234958 1 9.40192 55.8084 55.218
235323 1 11.0083 57.4798 56.8811
24367 1 23.8212 54.5124 56.7694
54410 1 44.6853 8.11194 7.50752
1370 1 44.4201 11.3546 7.43235
1741 1 55.6013 12.8658 8.89101
1448 1 44.6346 20.9142 7.4707
1424 1 47.7753 17.7433 7.55373
1452 1 50.9488 20.8539 7.55374
1480 1 54.0821 24.068 7.59231
1530 1 50.9329 30.3748 7.5653
1554 1 47.7068 33.7358 7.45507
1556 1 50.9171 33.7244 7.47078
1532 1 54.1232 30.505 7.43205
1558 1 53.9546 33.6695 7.46338
1580 1 47.6616 36.8891 7.54713
1604 1 44.695 40.0272 7.50426
1610 1 53.8634 39.8815 7.52216
54747 1 42.8013 6.67888 9.07486
54750 1 47.7012 8.01409 10.6611
1707 1 42.8278 9.64827 9.10667
1735 1 46.0874 13.0686 9.02834
1711 1 49.2643 9.83248 9.05638
1737 1 49.3627 13.0049 9.10043
2049 1 49.1962 9.7078 12.2437
1712 1 50.846 11.4028 10.7755
1713 1 52.5252 9.83361 8.98188
1714 1 54.1386 11.4211 10.7223
2077 1 52.4846 13.0718 12.2536
1733 1 42.8911 13.1276 9.08288
1759 1 42.9676 16.1065 9.03884
2097 1 42.9902 16.1885 12.3401
2101 1 49.1694 16.2107 12.3901
1765 1 52.5033 16.1359 8.99395
2105 1 55.7345 16.0461 12.3589
1785 1 42.9277 19.2231 9.00227
2125 1 46.0414 19.2366 12.2192
2127 1 49.2113 19.2934 12.3078
1764 1 50.8337 17.7116 10.6411
1790 1 50.9243 20.8464 10.6183
1793 1 55.5751 19.308 9.00818
1766 1 54.054 17.6668 10.8047
2131 1 55.8178 19.4066 12.3547
1792 1 53.974 20.8383 10.7053
1811 1 42.8814 22.4615 9.00863
2149 1 42.9108 22.3312 12.4148
1814 1 47.4478 24.0123 10.7408
1818 1 54.0538 24.1484 10.6298
1865 1 46.1835 28.9309 9.17859
1838 1 44.465 27.178 10.6295
1841 1 49.2137 25.5846 9.15472
2179 1 49.3223 25.5935 12.1689
1842 1 50.9318 27.363 10.5804
1871 1 55.6807 28.8081 9.09006
1844 1 54.0252 27.1217 10.6462
1889 1 42.8645 31.9159 9.1072
2227 1 42.9462 31.9615 12.2873
2229 1 46.0366 31.9492 12.2299
1893 1 49.1827 31.9865 9.07047
1894 1 50.9143 33.7025 10.6405
1896 1 54.043 33.5726 10.7
1917 1 46.063 35.2469 9.08035
1916 1 44.4371 36.8553 10.6756
1892 1 47.6878 33.8344 10.7559
1922 1 54.0593 36.8709 10.5853
1967 1 42.6819 41.6303 8.94548
1942 1 44.4865 40.0441 10.608
1944 1 47.7445 39.9037 10.5545
1949 1 55.7519 38.4951 8.95944
1973 1 52.3077 41.6722 9.07798
2285 1 52.3628 38.3307 12.3248
55086 1 44.4582 8.10515 13.867
55427 1 49.2379 6.70609 15.5518
55429 1 52.5385 6.61216 15.5473
55092 1 54.1203 8.03742 13.7662
2046 1 44.4632 11.4387 13.7646
2048 1 47.7549 11.4736 13.8242
2388 1 50.8224 11.3639 16.9712
2417 1 55.5872 12.9319 15.4906
2409 1 42.9942 13.0908 15.5027
2437 1 46.0201 16.0837 15.2887
2413 1 49.2698 13.1791 15.4806
2076 1 50.8719 14.5711 13.7592
2412 1 47.6029 14.6588 17.1297
2461 1 42.9252 19.3049 15.401
2465 1 49.3801 19.1049 15.3585
2126 1 47.6671 20.9301 13.925
2464 1 47.6391 20.7841 16.9688
2466 1 50.9416 20.9809 17.0067
2467 1 52.43 19.2197 15.3624
2442 1 54.2135 17.7442 17.002
2468 1 54.0918 20.9335 17.0026
2150 1 44.6111 24.1137 13.6805
2490 1 47.7358 23.9248 16.9797
2493 1 52.5044 22.5201 15.2609
2495 1 55.7686 22.5345 15.2826
2513 1 43.0217 25.6019 15.4685
2539 1 43.0363 28.831 15.3616
2515 1 46.0843 25.7287 15.5448
2182 1 54.0488 27.1687 13.7182
2520 1 53.986 27.2558 17.1478
2206 1 50.8229 30.4972 13.7712
2232 1 50.7853 33.6746 13.8294
2542 1 47.7343 30.4522 17.0658
2570 1 50.7493 33.6186 16.8911
2208 1 54.1146 30.5954 13.6991
2234 1 54.0875 33.6194 13.7813
2593 1 45.993 35.1664 15.4895
2592 1 44.4456 36.9518 17.1744
2258 1 50.6722 36.6967 13.8767
2594 1 47.6789 36.9515 17.0096
2597 1 52.5341 35.3362 15.4707
2645 1 46.1445 41.5853 15.362
2621 1 49.4376 38.5472 15.4612
2625 1 55.5416 38.4369 15.5354
55763 1 46.2904 6.67673 18.6305
55767 1 52.3817 6.54579 18.6148
55768 1 54.0782 8.16389 20.2469
2721 1 42.94 9.7624 18.7168
2727 1 52.3861 9.77664 18.6177
2773 1 42.9634 16.1397 18.4781
2748 1 44.4852 14.5414 20.2162
2777 1 49.454 16.1608 18.5744
2750 1 47.6916 14.5115 20.2674
2779 1 52.4213 16.2124 18.5956
2754 1 54.1604 14.4091 20.1282
2803 1 49.391 19.2404 18.6371
2802 1 47.5776 20.8387 20.3233
2804 1 50.902 20.9839 20.2796
2805 1 52.518 19.2319 18.7334
2825 1 43.0645 22.4457 18.6771
2851 1 42.9413 25.4785 18.6991
2828 1 47.729 23.9539 20.391
2833 1 55.6331 22.6177 18.7449
2852 1 44.4461 27.3277 20.2094
2855 1 49.1872 25.684 18.6083
2854 1 47.6845 27.3128 20.2464
2856 1 50.9024 27.2874 20.2375
2904 1 44.4703 33.5853 20.2905
2907 1 49.2185 32.1925 18.8094
2884 1 53.9947 30.4843 20.2381
2932 1 47.7135 36.8359 20.1601
2935 1 52.3755 35.2359 18.5576
2937 1 55.6908 35.242 18.4869
2981 1 42.8284 41.5672 18.6433
2985 1 49.283 41.6383 18.4844
2961 1 52.4223 38.3102 18.4324
2963 1 55.6684 38.3842 18.4623
56099 1 42.8681 6.64686 21.8713
56101 1 46.2417 6.72803 21.8938
56104 1 50.9475 8.32745 23.4006
56443 1 52.4165 6.55669 24.9521
3060 1 44.492 11.3605 23.2918
3425 1 46.0129 12.9292 25.1601
3063 1 49.222 9.72523 21.6687
3062 1 47.7966 11.4754 23.4067
3067 1 55.5732 9.84467 21.8555
3091 1 52.4859 12.8089 21.8259
3431 1 55.6225 12.9057 24.9848
3449 1 42.941 16.0421 25.2062
3086 1 44.5334 14.5455 23.3648
3090 1 50.7881 14.3943 23.4891
3117 1 52.4173 16.2452 21.8061
3119 1 55.7246 16.1943 21.731
3137 1 42.9552 19.3162 21.7796
3475 1 43.034 19.2936 25.1084
3477 1 46.0469 19.3228 25.1963
3138 1 44.6526 20.8653 23.3286
3114 1 47.6427 17.6811 23.4971
3481 1 52.3814 19.1835 25.048
3118 1 54.1689 17.6676 23.4782
3503 1 46.0459 22.463 25.2192
3529 1 46.0084 25.4653 25.0842
3169 1 52.5579 22.5356 21.7723
3171 1 55.6256 22.6305 21.6745
3553 1 42.8136 28.8877 24.8606
3190 1 44.4337 27.1313 23.3792
3555 1 46.0458 28.9759 24.874
3219 1 49.1882 29.0191 21.8847
3533 1 52.3757 25.6822 25.0033
3559 1 52.339 28.9425 24.9935
3242 1 44.4534 33.5764 23.3827
3247 1 52.2617 32.125 21.8368
3248 1 54.1458 33.633 23.275
3268 1 44.5134 36.8296 23.5201
3244 1 47.7009 33.7375 23.386
3611 1 52.4524 35.2655 24.9115
3293 1 42.8497 38.4371 21.7497
3295 1 46.0258 38.4354 21.74
3321 1 46.0478 41.4417 21.7367
3297 1 49.4085 38.312 21.7815
3296 1 47.7896 39.8989 23.4512
3661 1 49.289 41.8164 24.9669
3299 1 52.3846 38.2519 21.8351
3301 1 55.6816 38.2742 21.8391
3325 1 52.403 41.6806 21.8675
3327 1 55.6692 41.7156 21.8099
3637 1 52.4034 38.1993 24.8188
3639 1 55.6673 38.2561 24.8788
3663 1 52.4198 41.8431 24.9485
56438 1 44.4503 8.16007 26.6474
56440 1 47.7767 8.16088 26.6197
56444 1 53.8993 8.22411 26.549
3761 1 42.9035 13.0624 28.163
3739 1 49.2874 9.80495 28.3468
3765 1 49.3005 12.885 28.2708
3402 1 50.8799 11.3253 26.4452
3743 1 55.6302 9.67476 28.1495
3404 1 53.9344 11.4042 26.6881
3795 1 55.6064 16.1008 28.0838
3452 1 47.7114 17.5352 26.5885
3817 1 49.2217 19.3373 28.2505
3819 1 52.4067 19.2348 28.1191
3839 1 42.9494 22.4142 28.2377
3843 1 49.1594 22.3955 28.2851
3506 1 50.6902 24.0936 26.5994
3847 1 55.6636 22.4626 28.1733
3508 1 54.1614 24.1132 26.5355
3530 1 47.7242 27.1881 26.5823
3895 1 49.2024 28.9449 28.2643
3534 1 54.1052 27.2724 26.6279
3872 1 54.0806 27.3515 29.6004
3919 1 46.1374 32.0194 28.2477
3584 1 50.8431 33.6983 26.5564
3560 1 54.087 30.4908 26.6541
3586 1 54.0997 33.5771 26.5903
3606 1 44.4884 36.7814 26.5487
3947 1 49.3678 35.3481 28.263
3608 1 47.6963 36.7728 26.3844
3951 1 55.5683 35.2715 28.2634
3969 1 42.8191 38.4482 28.2308
3971 1 46.2015 38.394 28.3143
3632 1 44.4183 39.8919 26.4397
3634 1 47.7663 39.8761 26.4498
3636 1 50.833 39.931 26.4605
3999 1 49.2959 41.4631 28.2481
3975 1 52.3467 38.3312 28.2501
3977 1 55.6288 38.4038 28.2376
3638 1 53.9792 39.9506 26.4719
4003 1 55.5363 41.6282 28.1785
57116 1 47.7296 8.12104 33.0938
57121 1 55.6441 6.6495 31.2663
4075 1 46.1723 9.67321 31.3237
4101 1 46.1282 12.9142 31.3136
4079 1 52.4 9.71404 31.2165
4105 1 52.4138 12.9578 31.3888
4080 1 54.0387 11.4066 32.9844
4100 1 44.4986 14.6525 33.0052
4102 1 47.6263 14.5049 32.9916
3768 1 54.0449 14.431 29.7394
4151 1 42.8605 19.3535 31.5131
3788 1 44.5552 17.6795 29.8606
3790 1 47.6263 17.5825 29.8362
4128 1 47.5881 17.7249 32.9864
4154 1 47.8151 20.895 33.0187
3794 1 54.0061 17.7178 29.9216
4157 1 52.3386 19.3746 31.4911
4132 1 54.1092 17.6919 32.9906
4177 1 42.8814 22.3663 31.4445
4179 1 46.1456 22.5343 31.4392
4183 1 52.4434 22.4817 31.3757
4203 1 42.9696 25.676 31.4083
4231 1 46.2011 28.7495 31.3583
3870 1 50.7687 27.1634 29.7437
4208 1 50.8188 27.1564 32.9158
4209 1 52.5411 25.6328 31.3462
3918 1 44.3903 33.6486 29.7335
4256 1 44.4462 33.5443 32.9136
3896 1 50.9016 30.5184 29.8746
3920 1 47.7629 33.6999 29.8837
3898 1 54.0561 30.4618 29.75
4258 1 47.7981 33.7184 32.8328
4287 1 52.5145 35.1489 31.216
4288 1 53.9677 36.9873 32.7689
4335 1 45.9639 41.3994 31.2997
4311 1 49.2333 38.4375 31.2737
4314 1 54.0793 39.9343 32.8054
57452 1 44.5398 8.00225 36.1904
57793 1 49.2397 6.66876 37.6439
57459 1 55.7256 6.77346 34.6551
57795 1 52.5343 6.72148 37.6548
4411 1 42.9059 9.71905 34.5237
4437 1 42.7622 12.8688 34.6048
4749 1 42.9274 9.80804 37.6735
4775 1 42.8237 12.9511 37.7109
4751 1 46.1624 9.73562 37.8231
4753 1 49.2266 9.70413 37.7648
4416 1 50.9164 11.4651 36.1902
4417 1 52.4165 9.66725 34.6635
4419 1 55.7368 9.73245 34.6727
4783 1 55.841 12.8758 37.7996
4438 1 44.57 14.5831 36.047
4467 1 49.4058 16.1436 34.5586
4440 1 47.6952 14.4854 36.1258
4469 1 52.4106 16.1655 34.5452
4444 1 54.0005 14.5007 36.1835
4807 1 52.4777 16.3732 37.7715
4489 1 42.8801 19.391 34.499
4827 1 42.8188 19.3489 37.7931
4491 1 46.02 19.4189 34.642
4829 1 46.1551 19.2926 37.664
4831 1 49.3254 19.1307 37.7481
4492 1 47.908 20.9389 36.0738
4495 1 52.5109 19.3106 34.6403
4835 1 55.6176 19.2343 37.5667
4855 1 46.1754 22.4959 37.6843
4516 1 44.3934 24.0148 36.1973
4520 1 50.9374 24.0506 36.0826
4523 1 55.5671 22.3874 34.5942
4522 1 53.9676 24.1313 36.1105
4567 1 42.8578 28.6509 34.5413
4543 1 46.121 25.572 34.4161
4542 1 44.5404 27.2373 36.2854
4883 1 49.2571 25.6015 37.781
4544 1 47.6542 27.2629 36.1724
4575 1 55.5963 28.841 34.3895
4887 1 55.6864 25.6449 37.7218
4595 1 46.1758 31.9935 34.484
4568 1 44.4467 30.3847 36.1954
4594 1 44.4996 33.6116 36.1676
4598 1 50.866 33.5524 36.2454
4599 1 52.4263 31.9601 34.4676
4601 1 55.5059 32.0461 34.4528
4619 1 42.9602 35.2935 34.4995
4961 1 49.3698 35.4004 37.8439
4622 1 47.5813 36.8183 36.2386
4625 1 52.4913 35.2791 34.5672
4627 1 55.4908 35.2243 34.4883
4963 1 52.4206 35.3866 37.7057
4645 1 42.9272 38.4092 34.516
5009 1 42.789 41.6871 37.7301
4647 1 46.0145 38.3141 34.3691
4649 1 49.3455 38.3977 34.5631
5013 1 49.3293 41.4437 37.7495
4651 1 52.4105 38.3959 34.6869
4653 1 55.5763 38.308 34.6291
4652 1 54.0712 39.9986 36.2016
58127 1 42.7339 6.60672 40.9869
58131 1 49.2653 6.62321 41.0187
5113 1 42.8124 12.8926 40.9612
4750 1 44.4721 11.2086 39.5059
5117 1 49.2382 12.7804 41.0171
5093 1 52.5357 9.69415 40.9599
5119 1 52.5525 12.7752 40.9873
5139 1 42.7886 16.106 40.8496
5141 1 46.2258 16.153 40.9574
4778 1 47.7874 14.4594 39.2818
4780 1 50.89 14.3946 39.2482
5143 1 49.2729 16.2665 40.8875
4782 1 53.9978 14.4287 39.2434
5147 1 55.6244 16.1093 40.8135
4832 1 50.8633 20.9964 39.3932
4834 1 54.1554 20.9651 39.3947
5191 1 42.8856 22.4772 40.9944
4854 1 44.3035 24.0881 39.2219
5219 1 46.0989 25.638 40.9186
5245 1 46.1536 28.8244 41.0492
4882 1 47.6125 27.3171 39.269
5223 1 52.4824 25.5966 40.9341
5249 1 52.3542 28.8453 40.8043
5269 1 42.8578 31.9343 40.9843
4932 1 44.472 33.6064 39.3666
5273 1 49.3746 32.0394 40.938
4934 1 47.6917 33.5816 39.2847
4912 1 54.1301 30.4953 39.3895
4938 1 53.9926 33.6549 39.375
4958 1 44.5438 36.8507 39.3651
5321 1 42.7165 38.4551 41.0406
5349 1 46.047 41.6434 40.9093
5325 1 49.2799 38.2785 40.8565
5327 1 52.4361 38.4615 40.8189
5329 1 55.6567 38.4351 40.9645
1456 1 57.2348 20.8722 7.42064
1560 1 57.2277 33.5072 7.50183
54756 1 57.2655 8.11211 10.5678
2183 1 55.9588 25.712 12.2582
1950 1 57.1793 39.9292 10.8682
55432 1 57.1695 8.11219 17.0723
2418 1 57.2288 14.5713 17.1202
2470 1 57.2904 20.9494 17.0773
2236 1 57.2141 33.6443 13.9075
2548 1 57.3826 30.4656 16.9452
2262 1 57.2441 36.9092 13.8334
2730 1 57.2166 11.4655 20.2175
2912 1 57.0879 33.6798 20.3766
56108 1 57.062 8.06258 23.391
3146 1 57.1788 21.0175 23.3859
3224 1 57.1032 30.628 23.3857
3250 1 57.1634 33.6809 23.4058
3458 1 57.3272 17.6993 26.6094
3536 1 57.197 27.2475 26.6058
3562 1 57.1393 30.5103 26.6832
3744 1 57.1963 11.4043 29.7138
3796 1 57.2015 17.7598 29.8087
3822 1 57.2078 20.7834 29.8204
4160 1 57.2498 20.9023 32.9749
3848 1 57.1705 24.1424 29.7738
4186 1 57.2889 24.0067 33.0143
3874 1 57.1451 27.336 29.6389
3926 1 57.241 33.5495 29.9307
4238 1 57.3025 30.6105 32.8727
4290 1 57.3196 36.7605 32.9424
4316 1 57.1917 39.9745 32.943
4550 1 57.2654 27.3391 36.259
4576 1 57.2479 30.4435 36.1803
4602 1 57.2367 33.6482 36.0531
4628 1 57.3726 36.7999 36.1346
4862 1 57.1446 23.9421 39.307
4888 1 57.2139 27.363 39.3321
4940 1 57.1104 33.7274 39.4599
4966 1 57.2521 36.6834 39.4244
58467 1 46.1052 6.54412 43.9757
58128 1 44.5083 8.37946 42.498
58468 1 47.7201 8.17641 45.6725
58470 1 50.8967 8.09828 45.7159
58471 1 52.5428 6.5322 43.951
58473 1 55.6787 6.55943 44.0983
5451 1 42.7735 12.8935 44.155
5453 1 46.2248 12.953 44.0881
5426 1 44.569 11.3012 45.6124
5090 1 47.583 11.1261 42.5287
5431 1 52.5199 9.71884 43.9419
5457 1 52.382 12.871 44.0685
5459 1 55.7819 12.7629 43.9093
5432 1 54.1304 11.3655 45.7626
5481 1 49.2493 16.1305 44.1257
5503 1 42.9928 19.4243 44.0217
5507 1 49.1341 19.2074 44.1771
5144 1 51.026 17.8456 42.5223
5168 1 47.7387 20.8895 42.371
5172 1 53.983 20.7551 42.4057
5531 1 46.0447 22.3274 44.0642
5530 1 44.5112 24.1602 45.5928
5194 1 47.7036 24.0311 42.5827
5196 1 50.754 23.8986 42.5088
5534 1 50.6747 23.8952 45.6239
5535 1 52.6487 22.5233 44.1343
5563 1 55.5576 25.4686 44.1421
5581 1 42.9004 28.8441 44.0788
5583 1 46.1426 28.8035 44.0662
5559 1 49.2562 25.8395 44.1554
5587 1 52.4851 28.7356 44.1603
5609 1 45.9631 32.102 44.0011
5608 1 44.4743 33.555 45.7741
5248 1 50.9008 30.506 42.5789
5272 1 47.7547 33.6381 42.5494
5584 1 47.6725 30.6483 45.6123
5610 1 47.7615 33.6645 45.6869
5612 1 50.8062 33.6584 45.677
5588 1 54.0256 30.3979 45.766
5614 1 54.0724 33.7462 45.6973
5296 1 44.5014 36.8389 42.4331
5636 1 47.7634 36.7214 45.7668
5638 1 50.8302 36.7542 45.5868
5302 1 53.9813 36.7736 42.5799
5661 1 46.2143 38.363 44.1417
5660 1 44.5175 40.026 45.6174
5326 1 50.8089 39.9011 42.7063
5666 1 54.0841 39.983 45.6712
58805 1 46.1206 6.57156 47.4092
58804 1 44.4306 8.16603 48.8941
5789 1 42.7972 12.8369 47.3308
5793 1 49.3109 12.9255 47.1566
5766 1 47.6753 11.3532 48.8842
5768 1 50.7953 11.3393 48.8814
5769 1 52.5299 9.63423 47.442
5770 1 54.1084 11.4479 48.8479
5815 1 42.8148 16.1798 47.4145
5819 1 49.2565 16.1993 47.1987
5794 1 50.738 14.5812 49.0161
5821 1 52.4492 16.0513 47.2642
5843 1 46.1364 19.2503 47.2881
5845 1 49.1526 19.2058 47.2384
5847 1 52.4575 19.21 47.2546
5849 1 55.6235 19.2523 47.2417
5867 1 42.7496 22.5414 47.3434
5869 1 46.119 22.4156 47.2432
5870 1 47.6632 24.0152 48.8224
5875 1 55.5518 22.3113 47.0888
5874 1 54.0251 24.0096 48.8018
5894 1 44.5772 27.2429 48.8133
5923 1 49.2115 28.8005 47.161
5899 1 52.4557 25.6703 47.1008
5900 1 53.9856 27.402 48.8566
5920 1 44.4947 30.481 48.7756
5922 1 47.5271 30.4999 48.9269
5924 1 51.0601 30.4231 48.7727
5948 1 47.7017 33.6174 48.8872
5953 1 55.6622 32.0644 47.3063
5952 1 54.0501 33.7513 48.8579
5971 1 42.9761 35.1716 47.4462
5973 1 45.9615 35.2354 47.4016
5978 1 54.0211 36.7416 48.948
5997 1 43.0613 38.4014 47.4354
6000 1 47.7162 39.8604 48.9198
6002 1 50.8239 39.9377 48.8865
6031 1 55.5391 41.6358 47.4609
59142 1 44.5395 8.24419 52.0288
59144 1 47.6445 8.29941 52.1147
59149 1 55.666 6.60765 50.5524
6127 1 43.0188 12.9254 50.4916
6467 1 45.9807 12.9429 53.6356
6104 1 47.7004 11.2807 52.0709
6106 1 50.8269 11.3255 52.0524
6107 1 52.5705 9.66712 50.4762
6109 1 55.6342 9.67283 50.507
6155 1 46.0346 16.1764 50.4878
6132 1 50.8127 14.623 51.9331
6497 1 52.4921 16.0756 53.7918
6134 1 54.0906 14.589 51.9393
6179 1 42.9427 19.1993 50.4202
6182 1 47.6144 20.8497 51.9659
6185 1 52.4101 19.15 50.4642
6543 1 42.8858 22.5588 53.7554
6211 1 52.3868 22.4236 50.494
6213 1 55.6407 22.4268 50.4623
6212 1 54.0337 24.0205 52.136
6257 1 42.8639 28.8562 50.5159
6569 1 43.0026 25.6836 53.6181
6595 1 42.9331 28.9013 53.5632
6233 1 46.0951 25.634 50.5644
6571 1 46.0485 25.6167 53.5721
6261 1 49.2875 28.9308 50.4057
6234 1 47.6347 27.3972 52.0809
6239 1 55.691 25.6866 50.3498
6577 1 55.5911 25.7209 53.8492
6601 1 52.5686 28.8626 53.6542
6603 1 55.6287 28.8981 53.7478
6621 1 42.9152 32.0523 53.6439
6285 1 45.8977 32.0966 50.5539
6286 1 47.6327 33.552 52.1168
6288 1 50.8055 33.495 51.9997
6289 1 52.6279 32.0041 50.511
6291 1 55.5699 32.0585 50.5553
6627 1 52.6699 31.9496 53.5124
6309 1 42.9642 35.1301 50.4391
6312 1 47.5803 36.8449 51.9936
6653 1 52.4079 35.2968 53.5763
6655 1 55.5274 35.2748 53.6343
6361 1 42.9811 41.5972 50.3306
6673 1 42.7805 38.2944 53.726
6336 1 44.4641 39.9258 52.0613
6340 1 50.7915 39.9615 52.0402
6343 1 55.626 38.4857 50.3996
6367 1 52.5314 41.6727 50.3287
6679 1 52.4347 38.3547 53.6193
6681 1 55.6296 38.4214 53.7095
6707 1 55.7395 41.7135 53.7222
59817 1 42.8539 6.44342 56.9488
59819 1 46.0556 6.50674 56.8762
59480 1 44.4903 8.23803 55.18
59484 1 50.8423 8.19388 55.2385
59486 1 54.065 8.08671 55.2461
6777 1 42.9168 9.90121 56.948
6805 1 45.9623 12.8667 56.7569
6442 1 47.7829 11.2273 55.2274
6444 1 50.917 11.2921 55.3578
6446 1 53.9974 11.381 55.3379
6829 1 42.8444 16.0894 56.7605
6833 1 49.3521 16.1208 56.905
6835 1 52.4974 16.1244 56.7975
6837 1 55.5457 16.1716 56.7141
6492 1 44.5349 17.7653 55.203
6518 1 44.5369 20.825 55.1847
6494 1 47.6633 17.7505 55.2304
6522 1 50.8018 20.8739 55.1427
6861 1 52.3898 19.3338 56.9476
6863 1 55.6514 19.2672 56.8098
6524 1 54.0009 20.8535 55.1519
6546 1 47.6758 24.1444 55.2909
6548 1 50.8035 24.0762 55.1977
6889 1 55.5176 22.4914 56.8871
6907 1 42.8544 25.6637 56.8494
6941 1 55.7724 28.9138 56.8031
6598 1 47.5868 30.5024 55.1308
6600 1 50.8451 30.4004 55.2588
6626 1 50.8133 33.5406 55.2146
6965 1 52.5522 31.9113 56.8814
6628 1 54.0253 33.5894 55.2278
6985 1 42.8825 35.1456 56.7789
6987 1 46.0241 35.2281 56.799
6648 1 44.5607 36.7456 55.1598
6652 1 50.7657 36.8868 55.307
6676 1 47.7725 40.0289 55.0939
7045 1 55.6551 41.6704 56.7165
58136 1 57.391 8.04199 42.356
58474 1 57.2873 8.11781 45.8642
5434 1 57.2595 11.308 45.8108
5122 1 57.2958 14.6948 42.5873
5460 1 57.267 14.5453 45.6784
5174 1 57.1818 20.7381 42.3316
5538 1 57.3477 23.9388 45.7529
5226 1 57.142 27.2787 42.4967
5252 1 57.1207 30.3398 42.4477
5278 1 57.2 33.7603 42.5529
5590 1 57.0823 30.3295 45.658
5642 1 57.2908 36.6168 45.6798
5330 1 57.3376 40.1548 42.6294
5668 1 57.2779 40.16 45.7194
5798 1 57.3516 14.5524 48.9615
5850 1 57.327 20.7829 48.8392
5928 1 57.1401 30.3256 48.9523
5980 1 57.3107 36.7167 48.9749
6110 1 57.3743 11.3355 51.9854
6162 1 57.2378 17.6739 51.9712
6292 1 57.2954 33.7921 51.9961
6656 1 57.4407 36.7915 55.0619
1660 1 50.8652 46.3288 7.52163
1686 1 50.8717 49.4775 7.58084
18946 1 44.5392 52.7552 7.47162
19291 1 55.736 51.1513 8.92515
18952 1 53.9841 52.787 7.4744
18972 1 44.5735 55.9007 7.44456
18976 1 50.8294 55.9439 7.60064
2331 1 42.8304 44.6386 12.185
1968 1 44.5678 43.1334 10.5879
1999 1 52.3638 44.6309 9.0652
2001 1 55.8124 44.6236 9.10081
1974 1 54.0856 43.1043 10.7218
2339 1 55.7165 44.7855 12.2088
2021 1 46.1462 47.9263 9.0482
2020 1 44.5546 49.6258 10.6893
1996 1 47.7872 46.2161 10.7503
1998 1 50.8083 46.3125 10.7059
2024 1 50.783 49.4582 10.7007
2027 1 55.7032 47.852 9.03567
2365 1 55.5561 47.8433 12.3201
2026 1 54.0429 49.5246 10.6326
19621 1 42.9156 51.226 12.3298
19286 1 47.5289 52.6311 10.6099
19651 1 49.273 54.155 12.2735
19317 1 55.6872 54.3171 9.06822
19627 1 52.3673 51.157 12.2913
19290 1 54.0829 52.7491 10.7413
19310 1 44.4173 55.8495 10.5943
19314 1 50.7754 55.9644 10.6727
19343 1 55.528 57.5482 9.14512
19679 1 52.5183 57.4575 12.2944
2306 1 44.5576 43.3398 13.9306
2644 1 44.5431 43.204 17.0045
2310 1 50.9011 43.1866 13.7983
2673 1 49.2123 44.6248 15.5504
2650 1 53.9665 43.158 16.9863
2358 1 44.5414 49.3765 13.8563
2334 1 47.6603 46.307 13.7914
2336 1 50.6976 46.3256 13.7567
2360 1 47.7253 49.501 13.7815
2698 1 47.647 49.5085 17.0382
2700 1 50.8148 49.3966 17.0313
2701 1 52.5587 47.9207 15.2566
2703 1 55.5184 48.0076 15.3994
2676 1 53.9783 46.2995 17.1045
2702 1 53.8127 49.5091 17.1846
19959 1 42.9436 51.2633 15.2934
19987 1 46.0646 54.2414 15.2103
19960 1 44.592 52.68 17.0643
19989 1 49.3496 54.1449 15.4246
19962 1 47.618 52.7585 17.1404
19965 1 52.3794 51.2311 15.4398
19967 1 55.5462 51.0483 15.4943
19993 1 55.4649 54.3822 15.4879
20011 1 42.8519 57.4746 15.4376
19650 1 47.8012 56.0437 13.9035
19652 1 50.7285 56.0098 13.8808
19988 1 47.6921 55.9438 17.0279
3009 1 46.181 44.8452 18.5669
3011 1 49.2178 44.7183 18.4498
3035 1 46.0699 47.8471 18.6649
3010 1 47.7926 46.2771 20.3515
3038 1 50.9483 49.3836 20.061
3041 1 55.749 47.9994 18.6514
20297 1 42.9717 51.1117 18.7326
20325 1 45.9765 54.3736 18.759
20301 1 49.3869 51.2265 18.6244
20305 1 55.6392 51.0501 18.5271
20329 1 52.4331 54.402 18.5188
20357 1 55.4266 57.5152 18.6048
3345 1 42.941 44.897 21.744
3683 1 43.0017 44.8693 24.9442
3685 1 46.0442 44.7875 24.9455
3322 1 47.6441 43.2834 23.1625
3353 1 55.7247 44.7207 21.7511
3691 1 55.6443 44.6951 25.0339
3709 1 42.9105 48.0657 24.9731
3711 1 45.9232 47.9974 24.9467
3348 1 47.7394 46.3525 23.3631
3374 1 47.7861 49.5505 23.4937
3376 1 50.858 49.6068 23.4898
3717 1 55.7366 48.007 25.0668
3378 1 54.0666 49.534 23.259
20637 1 46.0019 51.0822 21.7453
20663 1 46.0674 54.411 21.7182
20975 1 45.9657 51.0713 25.0285
20639 1 49.3455 51.1801 21.6918
20665 1 49.2854 54.4049 21.8139
20638 1 47.6341 52.7455 23.4668
20667 1 52.4661 54.3207 21.8489
20687 1 42.8701 57.5492 21.704
21025 1 42.8032 57.5449 25.061
20662 1 44.5194 55.9396 23.4998
21027 1 46.2763 57.5327 24.9871
21003 1 49.2173 54.5579 24.8474
3658 1 44.4516 43.1871 26.6605
3660 1 47.626 43.2738 26.7762
4027 1 52.5351 44.6132 28.1192
3684 1 44.4893 46.2842 26.7374
4049 1 45.9333 48.0604 28.2804
3688 1 50.8207 46.3875 26.6038
3714 1 50.7731 49.6285 26.4922
4055 1 55.7945 47.9864 28.1072
3716 1 53.9171 49.5814 26.5691
20974 1 44.5162 52.9461 26.5584
20978 1 50.7067 52.745 26.5263
21339 1 46.2129 54.515 28.1699
21004 1 50.7957 55.9095 26.627
21006 1 54.1298 56.0441 26.5873
21369 1 52.3688 57.6122 28.2255
3996 1 44.5318 43.267 29.74
4363 1 49.302 44.8217 31.4926
4336 1 47.5182 43.1348 32.9242
4340 1 54.1615 43.1628 32.8369
4385 1 42.9708 48.0551 31.2493
4360 1 44.3892 46.3254 33.0143
4052 1 50.834 49.6439 29.7489
4390 1 50.8625 49.6329 32.9143
4393 1 55.6789 48.0913 31.3407
21675 1 42.814 54.3848 31.2939
21651 1 46.0433 51.1134 31.4741
21312 1 44.5395 52.819 29.7759
21653 1 49.0443 51.1905 31.4933
21316 1 50.7429 52.7341 29.7484
21318 1 54.009 52.7026 29.7705
21683 1 55.7076 54.3417 31.3644
21703 1 46.1359 57.5835 31.453
21676 1 44.4625 55.8823 32.9146
21681 1 52.4213 54.4981 31.3256
4672 1 44.4515 43.1784 36.0019
5037 1 46.003 44.7916 37.7452
5063 1 46.1095 47.9475 37.7349
4724 1 44.4052 49.5683 36.1271
4727 1 49.1515 47.9276 34.5021
5065 1 49.2173 47.9904 37.7948
4731 1 55.636 48.0798 34.4329
5067 1 52.4062 47.9117 37.8204
22325 1 42.7604 51.2733 37.8788
22351 1 42.8235 54.3534 37.7803
22327 1 46.14 51.2444 37.802
22353 1 46.065 54.3623 37.6931
21992 1 50.8013 52.9089 36.2181
22331 1 52.3476 51.2433 37.8178
22333 1 55.6595 51.1816 37.824
22377 1 42.8337 57.3894 37.6892
22015 1 46.1879 54.4313 34.6433
22379 1 45.9759 57.4035 37.6785
22043 1 49.1146 57.4768 34.5234
22021 1 55.6625 54.4237 34.4887
22045 1 52.4744 57.5174 34.6358
22047 1 55.5502 57.5484 34.5969
22385 1 55.6033 57.5802 37.7555
5014 1 50.8359 43.2949 39.2496
5377 1 49.2957 44.8354 40.9709
5016 1 54.05 43.285 39.2756
5405 1 52.497 47.7809 40.8419
22689 1 42.8141 54.2901 40.7846
22328 1 47.7937 52.8567 39.4212
22697 1 55.5162 54.4338 40.8505
22715 1 42.8681 57.6308 40.9511
22354 1 47.7639 55.9279 39.4277
22356 1 50.7441 55.8791 39.3203
18980 1 57.3062 55.9861 7.43175
2652 1 57.1921 43.2259 16.916
2340 1 57.2666 46.2825 13.976
19994 1 57.3138 55.8971 17.0447
20306 1 57.0114 52.805 20.1168
20644 1 57.2519 52.6722 23.4664
20670 1 57.2115 55.9999 23.3479
21008 1 57.2516 55.9894 26.6253
4368 1 57.1968 46.2892 32.8795
21684 1 57.2553 56.0979 32.9186
4680 1 57.2595 43.1468 36.1495
5044 1 57.2127 46.3824 39.3448
22334 1 57.1568 52.8192 39.3687
5348 1 44.5115 43.1774 42.6182
5686 1 44.4746 43.0846 45.6152
5352 1 50.8569 43.2114 42.6887
5719 1 55.557 44.6952 44.1177
5737 1 42.9631 48.0183 44.1907
5374 1 44.4754 46.335 42.4758
5400 1 44.4847 49.5505 42.4822
5376 1 47.5099 46.3508 42.6059
5404 1 50.8839 49.5227 42.5098
5740 1 47.5265 49.5496 45.6889
5745 1 55.6136 47.9897 44.1085
23029 1 46.1904 54.3384 44.0908
23005 1 49.2511 51.1635 44.0441
23033 1 52.4327 54.1999 44.1118
23027 1 42.8008 54.455 44.206
22690 1 44.5359 55.9257 42.481
23028 1 44.5542 56.0209 45.7763
23032 1 50.9565 56.0791 45.6258
22696 1 53.934 56.0286 42.6012
23061 1 55.7528 57.5498 44.0604
6049 1 42.7536 44.7412 47.3991
6051 1 46.2011 44.7405 47.149
6026 1 47.7732 43.2155 48.8497
6028 1 50.6918 43.2395 48.7813
6055 1 52.5219 44.7052 47.3188
6050 1 44.4657 46.4688 48.791
6076 1 44.474 49.5204 48.847
6079 1 49.2707 47.964 47.2869
6056 1 54.1836 46.2625 48.8659
23365 1 42.7529 54.3506 47.2803
23340 1 44.6416 52.8666 48.8577
23343 1 49.2733 51.0722 47.3251
23369 1 49.176 54.4366 47.2813
23371 1 52.5386 54.2127 47.3047
23373 1 55.5972 54.3422 47.2316
23395 1 49.1629 57.4872 47.2981
23370 1 50.9432 55.9633 48.7839
6725 1 42.9738 44.9012 53.6013
6389 1 46.0251 44.8123 50.551
6362 1 44.5196 43.078 52.2166
6366 1 50.8 43.2822 52.0818
6395 1 55.7914 44.6476 50.4705
6368 1 53.9787 43.2733 52.1284
6753 1 46.0692 47.8551 53.6942
6419 1 52.5077 47.988 50.39
6421 1 55.6429 48.062 50.4186
6757 1 52.4561 47.9768 53.651
23678 1 44.6313 52.7529 51.9272
24045 1 49.3002 54.2643 53.6867
23683 1 52.4525 51.1874 50.4373
23685 1 55.5225 51.1448 50.4317
24021 1 52.4582 51.1155 53.5379
24023 1 55.5511 51.0594 53.5649
24047 1 52.4352 54.3629 53.6155
23729 1 42.9585 57.5136 50.4145
23731 1 46.0463 57.5376 50.3925
24071 1 49.3089 57.5696 53.6649
23735 1 52.4188 57.5557 50.4155
6700 1 44.521 43.1518 55.2131
6702 1 47.6102 43.2617 55.2116
6704 1 50.8804 43.2121 55.2893
7071 1 55.6298 44.6757 56.8181
7091 1 46.1174 47.8954 56.8396
7093 1 49.3011 47.9333 56.867
6756 1 50.8062 49.6072 55.1724
7095 1 52.3396 47.9483 56.9159
6732 1 54.017 46.3364 55.2201
7097 1 55.6973 47.9957 56.8976
24355 1 46.219 51.1548 56.9264
24016 1 44.4647 52.6724 55.3025
24383 1 49.2939 54.2986 56.7491
24385 1 52.4571 54.3086 56.8479
24022 1 54.0878 52.6294 55.3049
24405 1 42.8352 57.5308 56.9438
24042 1 44.509 55.9995 55.1837
23010 1 57.2481 52.6338 45.7743
22698 1 57.3133 55.999 42.3944
6084 1 57.2678 49.7455 48.7699
23686 1 57.2848 52.7931 52.1937
6734 1 57.3702 46.3168 55.2372
6760 1 57.2493 49.6356 55.2219
24050 1 57.2304 55.8547 55.2211
