ITEM: TIMESTEP
0
ITEM: NUMBER OF ATOMS
2706
ITEM: BOX BOUNDS pp pp pp
0.0000000000000000e+00 6.4203999999999994e+01
0.0000000000000000e+00 6.4203999999999994e+01
0.0000000000000000e+00 6.4203999999999994e+01
ITEM: ATOMS id type x y z
9301 1 31.9381 15.9813 19.3012
5215 1 22.3844 32.0133 19.129
4819 1 28.8464 32.094 12.7221
9161 1 32.0708 25.5944 16.0129
9141 1 32.0457 22.4871 16.0881
1200 1 30.4569 30.5218 17.6691
4815 1 22.4329 31.9566 12.8131
4615 1 22.3575 31.9119 9.7389
4607 1 9.62948 32.0914 9.68882
4409 1 12.825 32.0053 6.43168
1188 1 11.3735 30.5697 17.5002
1385 1 6.57885 28.9758 19.3114
1397 1 25.6327 28.939 19.2987
1180 1 30.4899 27.2475 17.7079
9121 1 32.028 19.3471 16.1762
9061 1 32.0624 9.52971 16.1013
447 1 9.38454 6.42245 6.46228
455 1 22.3692 6.44649 6.57575
450 1 14.5014 8.02287 8.01573
452 1 17.5344 8.01311 8.02316
476 1 23.8518 11.173 8.00362
488 1 11.3092 14.3862 8.1109
493 1 19.2699 12.7878 6.47588
500 1 30.4873 14.4812 8.03911
506 1 7.97996 17.6477 7.92418
507 1 9.48195 15.819 6.49433
508 1 11.299 17.4467 7.95562
514 1 20.7297 17.5909 7.84537
530 1 14.544 20.9874 8.01878
534 1 20.764 20.8786 7.80916
536 1 24.0635 20.8083 7.86258
546 1 8.08199 24.1733 7.9172
568 1 11.2091 27.2708 8.08455
569 1 12.8921 25.6198 6.50908
572 1 17.8097 27.2156 8.05508
558 1 27.1804 24.1219 8.02397
586 1 7.96824 30.4793 8.03906
591 1 15.9967 28.7341 6.4511
592 1 17.7118 30.5056 8.07433
596 1 24.006 30.4171 8.04139
599 1 28.9235 28.9075 6.46479
1394 1 20.7608 30.5232 20.6969
8681 1 32.0646 12.8926 9.75682
655 1 22.4062 6.43006 9.7094
646 1 8.02696 8.05635 11.1571
666 1 8.06458 11.1445 11.1854
650 1 14.4674 7.92035 11.1494
670 1 14.4953 11.2744 11.1682
672 1 17.6761 11.2313 11.2388
673 1 19.3186 9.59109 9.60185
656 1 23.9951 8.11613 11.2836
678 1 27.2639 11.3187 11.2098
679 1 28.9524 9.71717 9.58007
692 1 17.7452 14.3302 11.2428
694 1 20.8194 14.4055 11.1532
697 1 25.5493 12.8176 9.48826
698 1 27.2259 14.3639 11.1879
705 1 6.49439 15.8874 9.74177
725 1 6.51414 19.2161 9.69113
708 1 11.2291 17.6021 11.2031
710 1 14.3653 17.5842 11.1403
729 1 12.8199 19.2846 9.47698
731 1 16.1297 19.1774 9.5172
714 1 20.9311 17.6044 11.2563
715 1 22.5111 16.0153 9.48349
735 1 22.3882 19.2809 9.54467
717 1 25.5796 16.0596 9.4785
718 1 27.1201 17.7051 11.2866
719 1 28.9259 16.1891 9.6728
739 1 28.7679 19.2702 9.5581
745 1 6.46746 22.4651 9.57625
749 1 12.6816 22.5677 9.46281
734 1 20.8436 20.8543 11.3994
755 1 22.3795 22.48 9.66859
757 1 25.7028 22.3304 9.61232
740 1 30.4413 20.9022 11.2078
750 1 14.4143 24.0123 11.1865
773 1 19.2737 25.5002 9.77645
756 1 24.0126 24.2213 11.1857
758 1 27.2882 23.9889 11.2056
778 1 27.1142 27.4204 11.1288
760 1 30.2628 23.8844 11.1633
779 1 28.8638 25.698 9.59763
780 1 30.3902 27.4018 11.1353
790 1 14.5605 30.5634 11.3805
798 1 27.1793 30.4175 11.1156
1393 1 19.1702 28.8888 19.1134
1392 1 17.6254 30.6807 20.6392
1391 1 16.1476 28.8434 19.1068
8461 1 32.065 9.71073 6.53038
846 1 8.03237 8.01038 14.3997
868 1 11.2025 11.1343 14.4894
1067 1 9.65045 9.57598 16.1168
852 1 17.7825 7.99709 14.3897
871 1 15.9711 9.57084 12.8938
872 1 17.7646 11.2307 14.3705
877 1 25.7669 9.58103 12.8905
878 1 27.2248 11.3202 14.468
879 1 28.8935 9.55664 12.9334
887 1 9.58642 12.7912 12.8147
888 1 11.2179 14.4439 14.5034
1089 1 12.8924 12.8644 16.075
892 1 17.7322 14.253 14.3659
1091 1 15.9178 12.8277 16.0237
894 1 20.7792 14.3286 14.3352
896 1 24.0688 14.3925 14.3794
1097 1 25.5841 12.8098 16.1216
899 1 29.0249 12.8565 12.7444
1099 1 28.9433 12.9397 16.0985
1105 1 6.4929 15.9679 15.8044
1125 1 6.50362 19.2959 16.0878
907 1 9.45275 15.9546 12.7792
908 1 11.2598 17.6405 14.4879
1107 1 9.54792 16.0409 16.0526
1127 1 9.53383 19.2797 16.0904
910 1 14.303 17.6085 14.5994
912 1 17.707 17.6991 14.5832
913 1 19.2028 16.1602 12.8419
931 1 16.0809 19.1746 12.7844
1115 1 22.3699 16.1006 15.9449
1135 1 22.3855 19.2608 15.9302
917 1 25.5323 16.0973 12.8799
919 1 28.9698 16.0839 12.7073
920 1 30.5686 17.7535 14.3768
939 1 28.7848 19.3038 12.7963
1119 1 28.877 16.0576 16.0466
945 1 6.51569 22.5825 12.917
926 1 8.05167 20.7325 14.2529
947 1 9.79421 22.6002 12.8941
1147 1 9.6372 22.3571 15.9595
1149 1 12.8922 22.5739 16.0141
932 1 17.7655 20.9309 14.4739
1157 1 25.7095 22.4132 15.9752
1165 1 6.51954 25.5783 16.0269
969 1 12.8376 25.6446 12.9534
970 1 14.5232 27.3413 14.4891
1173 1 19.1186 25.7373 15.8964
954 1 20.8657 23.9938 14.4852
1175 1 22.5304 25.8206 15.9767
956 1 23.9733 24.09 14.4351
958 1 27.3539 24.1076 14.4115
978 1 27.2429 27.2964 14.4083
1390 1 14.5313 30.6084 20.7322
1389 1 12.7693 29.006 19.2357
986 1 8.05479 30.4858 14.445
987 1 9.7682 28.8345 12.9148
989 1 12.9019 28.8747 12.9036
992 1 17.6809 30.4579 14.3458
1191 1 16.1527 28.8912 16.116
994 1 20.7718 30.4154 14.4963
998 1 27.2219 30.513 14.4477
1197 1 25.525 28.87 16.036
1000 1 30.3808 30.5564 14.5133
1046 1 7.97775 7.96738 17.6047
1246 1 8.10329 8.16198 20.8292
1248 1 11.2143 8.07932 20.9216
1267 1 9.73645 9.62952 19.1572
1250 1 14.4001 7.97555 20.9226
1269 1 12.8114 9.5563 19.1219
1270 1 14.2663 11.4074 20.7785
1052 1 17.7878 7.974 17.4967
1072 1 17.6792 11.3389 17.586
1271 1 16.0302 9.63361 19.2142
1274 1 20.7244 11.2391 20.8628
1275 1 22.4309 9.72249 19.0747
1258 1 27.4191 7.93791 20.7394
1080 1 30.4948 11.2032 17.665
1279 1 29.0082 9.53327 19.2407
1086 1 8.05288 14.2694 17.6881
1286 1 8.1949 14.2685 20.9386
1288 1 11.3098 14.34 20.9053
1290 1 14.3371 14.4669 20.8714
1295 1 22.3973 12.8223 19.0708
1096 1 24.1094 14.621 17.5719
1296 1 24.0943 14.4957 20.8867
1297 1 25.6343 12.798 19.1591
1298 1 27.2911 14.5781 20.899
1305 1 6.43497 15.8723 19.4132
1106 1 7.93693 17.6199 17.785
1108 1 11.3765 17.6721 17.5976
1307 1 9.76976 16.0231 19.2667
1310 1 14.3734 17.5768 20.9176
1112 1 17.7877 17.6422 17.6473
1311 1 15.9587 16.0232 19.1408
1312 1 17.5771 17.6121 20.8413
1333 1 19.2528 19.4409 19.3094
1335 1 22.4828 19.3004 19.2037
1337 1 25.6956 19.2472 19.3694
1320 1 30.3549 17.717 20.8292
1128 1 11.3139 20.7796 17.6894
1130 1 14.3221 20.7024 17.6583
1132 1 17.7231 20.8876 17.5248
1334 1 21.0326 20.8499 20.9475
1355 1 22.4472 22.4289 19.0209
1136 1 24.1292 20.7585 17.4734
1336 1 24.073 20.9821 20.9971
1357 1 25.6094 22.4754 19.0507
1146 1 8.15364 23.9798 17.725
1148 1 11.214 24.1268 17.6943
1166 1 8.06062 27.3122 17.5563
1346 1 8.18239 23.9883 20.8702
1170 1 14.328 27.2831 17.601
1370 1 14.446 27.2545 20.8142
1174 1 20.845 27.2476 17.5892
1354 1 20.8799 24.1987 20.6599
1374 1 20.8864 27.1471 20.5989
1158 1 27.3516 24.126 17.5567
1178 1 27.2903 27.2184 17.5411
1356 1 24.0976 24.0533 20.8787
1358 1 27.1567 24.0231 20.8903
1377 1 25.5813 25.7163 19.1557
2700 1 28.8857 28.9514 41.8529
2600 1 30.5464 30.5177 40.0919
10631 1 32.095 9.7582 41.7514
1453 1 19.1652 6.49288 22.485
1465 1 6.46645 9.74003 22.4919
1470 1 14.4936 11.2055 23.9935
1471 1 16.1075 9.70344 22.3269
1472 1 17.6405 11.1354 24.0833
1454 1 20.9147 8.00508 24.0481
1456 1 24.1392 7.87512 24.1537
1458 1 27.2697 7.90947 24.133
1476 1 24.0891 11.184 24.081
1480 1 30.5299 11.3582 24.2072
1491 1 16.1177 12.8633 22.3536
1492 1 17.6465 14.5451 24.0404
1499 1 28.9625 12.7835 22.3794
2699 1 25.523 28.9314 41.7297
1505 1 6.442 15.8926 22.5082
1525 1 6.46209 19.2634 22.4788
1513 1 19.1462 16.0537 22.3861
1515 1 22.4675 16.0358 22.4419
1516 1 24.0901 17.6496 24.0122
1520 1 30.3362 17.6409 24.1497
1539 1 28.722 19.3238 22.4396
1549 1 12.7397 22.3959 22.4289
1553 1 19.25 22.3378 22.3992
1555 1 22.4644 22.5671 22.6382
1540 1 30.3161 20.801 24.2162
1559 1 28.7801 22.501 22.6064
1570 1 14.4963 27.272 24.0029
1552 1 17.535 24.0748 23.9042
1572 1 17.4801 27.237 23.9642
1573 1 19.2786 25.8211 22.4215
1554 1 20.7257 24.1458 24.0815
1575 1 22.4804 25.7131 22.5238
1578 1 27.2902 27.3152 24.0502
1580 1 30.3022 27.2966 24.1064
1587 1 9.54985 28.9843 22.3879
1591 1 16.0593 29.0702 22.4675
1593 1 19.2199 28.8357 22.3957
10281 1 32.0496 12.8003 35.3559
9741 1 32.0994 22.4374 25.6639
2595 1 22.5558 28.825 38.5774
1653 1 19.161 6.53518 25.6211
1648 1 11.2687 8.00011 27.1642
1667 1 9.65635 9.81716 25.4341
1668 1 11.353 11.104 27.2977
1867 1 9.67122 9.69364 28.9336
1669 1 12.7584 9.7338 25.4583
1670 1 14.4513 11.168 27.2842
1652 1 17.5851 8.09949 27.3691
1673 1 19.2511 9.57932 25.7645
1674 1 20.8411 11.3683 27.3761
1675 1 22.391 9.57345 25.7795
1875 1 22.3134 9.51805 28.8291
1656 1 24.1663 7.86843 27.2055
1676 1 24.0026 11.293 27.371
1877 1 25.8625 9.72053 28.8322
1660 1 30.468 7.90903 27.3989
1680 1 30.5125 11.3706 27.2375
2696 1 16.1567 28.8773 41.7546
1686 1 8.04676 14.3617 27.1345
1687 1 9.79168 12.8603 25.5528
1887 1 9.77798 12.855 28.8285
1689 1 12.8039 12.9017 25.567
1690 1 14.4048 14.4604 27.3709
1889 1 12.7682 12.7847 28.9388
1691 1 16.0518 12.8998 25.6859
1693 1 19.0752 12.8408 25.7779
1695 1 22.5169 12.925 25.5845
1897 1 25.8507 12.8546 28.9291
1899 1 28.7429 12.8121 28.9363
1705 1 6.54618 15.9978 25.6217
1925 1 6.42774 19.2319 28.7555
1907 1 9.67059 16.0402 28.6912
1710 1 14.5222 17.5784 27.2609
1929 1 12.7527 19.1341 28.8033
1933 1 19.2865 19.1495 28.8803
1715 1 22.4589 16.0295 25.7153
1735 1 22.4044 19.2768 25.6104
1737 1 25.7413 19.3052 25.6487
1917 1 25.8128 16.02 28.8776
1939 1 28.853 19.2243 28.9022
1726 1 8.03693 20.7785 27.151
1949 1 12.7378 22.4035 28.8941
1732 1 17.5178 20.6903 27.211
1751 1 15.9837 22.4459 25.6366
1753 1 19.2906 22.3376 25.5578
1951 1 16.101 22.4346 28.9923
1953 1 19.1118 22.3731 28.9908
1755 1 22.5182 22.456 25.5781
1736 1 24.0911 20.7677 27.3613
1957 1 25.8078 22.3325 28.8865
1967 1 9.55545 25.7437 28.8437
1750 1 14.3018 24.0117 27.2602
1769 1 12.732 25.7969 25.7243
1770 1 14.5448 27.3909 27.3027
1969 1 12.6951 25.8941 28.8951
1752 1 17.7047 23.9961 27.2362
1771 1 16.0767 25.6822 25.7812
1973 1 19.07 25.7795 28.9275
1774 1 20.884 27.2207 27.3396
1758 1 27.2926 24.1119 27.2789
1778 1 27.3576 27.1675 27.3224
1760 1 30.3923 24.058 27.232
1789 1 12.8452 28.996 25.7464
1792 1 17.5726 30.5662 27.3996
1793 1 19.1373 28.855 25.6403
1794 1 20.7756 30.5733 27.3186
1795 1 22.4775 28.7983 25.6484
1995 1 22.4079 28.9558 29.013
1797 1 25.6351 28.8428 25.7984
1997 1 25.6738 28.955 28.906
1999 1 28.9129 28.9817 28.8698
2591 1 16.0892 28.8709 38.573
2057 1 25.6932 6.43 32.2079
2059 1 28.8942 6.42558 32.2154
2065 1 6.49048 9.67676 32.207
1848 1 11.2693 8.09236 30.5745
1866 1 8.00947 11.2828 30.5255
2050 1 14.523 8.0175 33.6474
2069 1 12.9916 9.82266 32.0754
2072 1 17.6033 11.2655 33.6734
2054 1 20.7585 7.93583 33.6388
2074 1 20.7435 11.2573 33.6802
2075 1 22.4776 9.63838 32.1021
1858 1 27.3471 7.99156 30.4721
1876 1 24.0147 11.2281 30.374
2077 1 25.6522 9.59296 32.1921
2078 1 27.4237 11.2217 33.6986
1880 1 30.5514 11.1433 30.5948
2080 1 30.4693 11.1573 33.6062
2087 1 9.7435 12.8505 32.1468
2089 1 12.9009 12.7877 32.0565
2090 1 14.5127 14.4578 33.7954
1892 1 17.6132 14.3339 30.4115
2091 1 15.9581 12.7698 32.0771
1894 1 20.7463 14.2806 30.4565
2094 1 20.7117 14.419 33.701
2098 1 27.3542 14.3633 33.7301
1900 1 30.5289 14.3657 30.3917
2125 1 6.47752 19.1945 32.0892
1906 1 8.21696 17.6351 30.5095
2106 1 8.21855 17.6354 33.7316
1912 1 17.4582 17.5562 30.3119
2111 1 16.0276 16.0001 32.1481
2112 1 17.6117 17.4894 33.8879
2131 1 16.0131 19.1569 32.1266
2133 1 19.1534 19.1591 32.0238
2114 1 20.7684 17.5601 33.8046
2135 1 22.4588 19.1273 32.0979
2117 1 25.6497 16.0441 32.0039
2118 1 27.4344 17.6953 33.647
2119 1 28.9664 16.0034 31.9908
2120 1 30.4481 17.7522 33.7669
1926 1 8.03305 20.8413 30.5096
1928 1 11.0666 20.7005 30.4893
2128 1 11.1646 20.7815 33.6365
2147 1 9.52288 22.5737 32.1304
2134 1 20.7688 20.8634 33.7913
2155 1 22.4145 22.4628 32.0866
2157 1 25.8299 22.378 32.1802
2140 1 30.4547 20.787 33.8022
2165 1 6.44905 25.694 32.1435
1948 1 11.1638 24.198 30.5461
2148 1 11.2004 24.1698 33.6856
2168 1 11.101 27.2994 33.5923
1970 1 14.5681 27.4458 30.4898
2170 1 14.6373 27.4734 33.6875
2171 1 16.0335 25.5666 32.1145
2173 1 19.212 25.7079 32.0475
1954 1 20.8937 24.1621 30.3619
2154 1 20.7412 24.0388 33.801
2174 1 20.7548 27.4252 33.8354
1978 1 27.3085 27.1932 30.3879
1960 1 30.4199 24.1416 30.4735
2160 1 30.4441 24.0217 33.7549
2179 1 28.7493 25.7002 32.2723
2180 1 30.589 27.2797 33.8006
1992 1 17.5154 30.5192 30.3698
2192 1 17.6114 30.3975 33.8934
2193 1 19.3377 28.9533 31.9254
2194 1 20.8168 30.4968 33.7565
2195 1 22.4173 28.9558 31.9953
2197 1 25.6993 29.0436 32.1387
2199 1 28.8067 29.0117 32.2353
2245 1 6.59289 6.46638 35.322
2257 1 25.7306 6.44467 35.1548
2265 1 6.43586 9.66783 35.2899
2246 1 8.23607 8.15056 36.9976
2248 1 11.2784 8.24404 36.7426
2267 1 9.45638 9.75788 35.1045
2271 1 16.036 9.66428 35.3793
2254 1 20.7843 7.9471 36.9248
2275 1 22.5742 9.55715 35.2382
2256 1 24.2417 7.97316 37.0566
2258 1 27.276 8.03693 36.996
2276 1 24.1719 11.0955 37.0314
2278 1 27.3856 11.2368 36.9958
2260 1 30.5422 8.06266 37.0176
2285 1 6.48473 12.6405 35.369
2286 1 7.98451 14.521 36.9112
2289 1 12.7987 12.8745 35.3421
2290 1 14.482 14.4313 36.9931
2295 1 22.5513 12.7571 35.2608
2298 1 27.3885 14.3091 36.9019
2325 1 6.43385 19.3132 35.4743
2306 1 8.15233 17.5411 36.8881
2307 1 9.86862 15.8362 35.3234
2327 1 9.64961 19.4401 35.5295
2329 1 12.9204 19.2076 35.396
2316 1 23.9178 17.8003 36.9994
2317 1 25.6911 16.1653 35.3431
2337 1 25.7096 19.2378 35.2559
2345 1 6.42766 22.5364 35.3085
2349 1 12.8203 22.3969 35.3636
2355 1 22.3838 22.5183 35.4296
2346 1 8.01538 24.0793 36.9953
2367 1 9.50055 25.6275 35.2939
2350 1 14.4157 24.0923 36.9581
2369 1 12.9626 25.7674 35.2717
2371 1 16.0692 25.7173 35.4296
2356 1 24.0437 24.0819 36.999
2379 1 28.7468 25.7044 35.2531
2386 1 7.95624 30.4281 36.9836
2387 1 9.57175 28.9201 35.3205
2392 1 17.5601 30.5867 36.9098
2394 1 20.7935 30.4175 36.9617
2397 1 25.5804 28.9516 35.3167
9541 1 32.062 22.4003 22.5502
9501 1 32.0839 16.0934 22.5003
9461 1 31.9652 9.67955 22.3498
2447 1 9.83539 6.44693 38.438
2449 1 12.8226 6.45575 38.4481
2626 1 16.1447 6.50351 41.8508
2455 1 22.4162 6.42903 38.5534
2459 1 28.8436 6.42635 38.5733
2633 1 6.46303 9.65822 41.8975
2446 1 8.16564 8.05958 40.1417
2635 1 12.7026 9.71119 41.693
2452 1 17.6147 7.92273 40.119
2471 1 16.0071 9.61258 38.4886
2473 1 19.2447 9.55468 38.5735
2474 1 20.8808 11.2804 40.2411
2456 1 24.1763 7.93745 40.1786
2639 1 25.8113 9.67051 41.6387
2460 1 30.5485 7.99108 40.1223
2480 1 30.5061 11.2708 40.0231
2640 1 28.837 9.69006 41.6271
2485 1 6.46726 12.7443 38.435
2486 1 7.94879 14.419 40.3246
2645 1 12.7979 12.8741 41.7426
2495 1 22.5283 12.8902 38.6182
2498 1 27.3029 14.4664 40.0945
2649 1 25.7342 12.8601 41.7475
2650 1 28.8457 12.8427 41.7678
2525 1 6.51234 19.1976 38.5528
2653 1 6.42775 16.2425 41.8158
2663 1 6.45242 19.2335 41.9417
2507 1 9.6752 15.9876 38.6871
2655 1 12.9037 15.9022 41.7203
2512 1 17.7123 17.7575 40.1935
2657 1 19.2651 16.0442 41.8502
2514 1 20.8627 17.8224 40.1843
2537 1 25.8039 19.1653 38.5661
2520 1 30.5002 17.7241 40.1182
2528 1 11.2243 20.8369 40.1881
2530 1 14.3264 20.7458 40.1589
2675 1 12.9112 22.5324 41.8319
2532 1 17.7529 20.7537 40.1752
2551 1 16.0696 22.4464 38.5067
2677 1 19.1877 22.5034 41.8742
2555 1 22.3048 22.471 38.6396
2536 1 23.9863 20.7665 40.2055
2679 1 25.6541 22.4264 41.7668
2540 1 30.5057 20.8309 40.114
2565 1 6.45412 25.706 38.7612
2567 1 9.52759 25.6979 38.6982
2550 1 14.4298 24.1519 40.018
2570 1 14.2926 27.3236 40.1562
2685 1 12.8809 25.5112 41.8526
2552 1 17.7363 24.2424 40.1475
2572 1 17.8198 27.1273 40.2321
2686 1 16.0397 25.6217 41.9277
2688 1 22.3573 25.7426 41.8394
2577 1 25.5696 25.7296 38.6512
2560 1 30.5757 24.118 40.1031
5605 1 6.55986 32.0256 25.6497
5805 1 6.44169 32.0885 28.9834
5611 1 16.0253 32.0181 25.4689
5617 1 25.7286 31.9789 25.7811
6207 1 9.66454 32.0737 35.254
6604 1 9.73751 31.9968 41.7925
6409 1 12.8594 32.0442 38.6293
6417 1 25.5129 31.9778 38.5782
2853 1 19.2136 6.51093 44.9313
2846 1 8.04153 8.06062 46.6163
2848 1 11.3177 8.21571 46.5741
2867 1 9.63295 9.77166 44.9546
2725 1 14.4054 8.12185 43.3731
2870 1 14.4051 11.2427 46.5789
2736 1 17.4519 11.0788 43.3866
2872 1 17.5522 11.187 46.722
2737 1 20.9855 11.2093 43.3787
2854 1 20.9191 8.04428 46.5926
2874 1 20.7382 11.2126 46.6676
2739 1 27.2983 11.117 43.4652
2876 1 24.0751 11.136 46.5344
2877 1 25.7225 9.5171 45.0712
2730 1 30.4219 7.97719 43.3535
2880 1 30.4188 11.3397 46.5755
2886 1 8.03087 14.6201 46.6234
2891 1 15.9935 13.0146 44.9703
2892 1 17.7037 14.5497 46.6592
2893 1 19.135 12.8425 44.9099
2747 1 20.9159 14.5519 43.4878
2895 1 22.4479 12.8635 45.0518
2897 1 25.797 12.9602 44.9991
2899 1 28.7662 12.95 44.9216
2907 1 9.67382 16.1114 45.0621
2755 1 14.339 17.7337 43.374
2909 1 12.8613 16.0576 45.182
2756 1 17.6968 17.7028 43.3734
2911 1 15.9631 16.0798 45.0268
2933 1 19.114 19.2991 45.1127
2935 1 22.4401 19.1973 45.0014
2758 1 24.1295 17.6725 43.3057
2759 1 27.2222 17.6977 43.3179
2917 1 25.7368 16.075 45.0723
2760 1 30.3749 17.5659 43.4213
2920 1 30.4501 17.5081 46.5338
2939 1 28.86 19.3113 45.1017
2765 1 14.4745 20.8502 43.4469
2949 1 12.8238 22.3989 45.0818
2767 1 20.8483 20.8159 43.3316
2957 1 25.6701 22.3796 45.0286
2770 1 30.2993 20.8412 43.1803
2773 1 8.0652 24.0655 43.318
2783 1 7.94525 27.3393 43.3405
2784 1 11.2604 27.3177 43.3355
2946 1 8.09848 23.9366 46.6977
2966 1 8.08075 27.4107 46.4861
2967 1 9.60878 25.6747 44.9867
2950 1 14.5004 24.0639 46.6429
2974 1 20.852 27.2327 46.6152
2975 1 22.3686 25.7021 44.8888
2789 1 27.1129 27.2343 43.352
2956 1 23.8622 24.019 46.6727
2790 1 30.6251 27.1521 43.2881
2960 1 30.3634 24.0908 46.6684
2980 1 30.4039 27.2399 46.6508
2988 1 11.1959 30.4788 46.3869
2990 1 14.371 30.5364 46.5048
2796 1 17.6915 30.5612 43.3525
2991 1 16.1536 28.8123 44.9252
2797 1 20.8628 30.3316 43.3569
2996 1 24.0127 30.4185 46.5321
2999 1 28.9032 28.9704 44.8747
3047 1 9.70917 6.42992 48.233
3051 1 15.9976 6.53288 48.1452
3065 1 6.47142 9.83016 48.1754
3068 1 11.2761 11.2701 49.7725
3070 1 14.41 11.2789 49.6695
3076 1 24.0712 11.1286 49.6998
3060 1 30.422 7.83139 49.8018
3079 1 28.7859 9.56117 48.0683
3080 1 30.3522 11.4636 49.639
3087 1 9.57354 12.9293 48.2442
3089 1 12.7854 13.0608 48.132
3090 1 14.3524 14.5355 49.8096
3095 1 22.4464 12.8808 48.1401
3097 1 25.7332 12.9013 48.0152
3098 1 27.3108 14.4388 49.736
3106 1 8.13323 17.6866 49.8113
3115 1 22.3772 16.2323 48.1069
3135 1 22.3382 19.2278 48.1968
3118 1 27.2423 17.7693 49.712
3120 1 30.4356 17.7332 49.5975
3145 1 6.43939 22.3151 48.3039
3130 1 14.4318 20.7932 49.6695
3132 1 17.6659 20.8198 49.7772
3159 1 28.7464 22.2932 48.0213
3167 1 9.62998 25.7888 48.269
3156 1 23.8748 23.9776 49.7691
3176 1 23.87 27.3492 49.6715
3185 1 6.44181 28.7973 48.2118
3187 1 9.70218 28.8562 48.3603
3189 1 12.74 28.8785 48.257
3190 1 14.4313 30.4662 49.7912
3191 1 16.1353 28.7172 48.2059
3192 1 17.664 30.5625 49.7055
3193 1 19.1883 28.8128 48.1687
3200 1 30.3017 30.5619 49.7327
11301 1 32.0826 16.1288 51.3218
11261 1 32.0212 9.60263 51.411
3253 1 19.4301 6.48829 51.3629
3248 1 11.1469 8.00799 52.8569
3467 1 9.69005 9.74406 54.5659
3469 1 12.6694 9.76386 54.4749
3252 1 17.7025 8.01239 52.98
3471 1 15.9915 9.78922 54.5207
3473 1 19.3209 9.69644 54.5707
3475 1 22.4196 9.63028 54.5365
3278 1 27.2004 11.2433 52.9606
3280 1 30.3549 11.3173 52.8931
3479 1 28.8523 9.4699 54.4635
3287 1 9.63242 13.0135 51.3289
3487 1 9.6466 12.9396 54.5953
3291 1 16.0643 12.8165 51.4028
3292 1 17.6419 14.4569 53.0437
3293 1 19.1266 12.86 51.3122
3491 1 15.9903 12.7536 54.4922
3295 1 22.556 12.8337 51.4336
3308 1 11.0703 17.5867 53.0848
3329 1 12.773 19.0977 51.3766
3529 1 12.8368 19.1636 54.5123
3311 1 16.0992 16.0688 51.3412
3331 1 16.0329 19.1305 51.367
3335 1 22.3772 19.3224 51.3958
3515 1 22.3795 16.0381 54.5603
3316 1 24.0743 17.6193 52.9142
3318 1 27.1632 17.7005 52.8933
3319 1 28.8452 16.0643 51.3743
3320 1 30.4905 17.8149 52.9783
3539 1 28.805 19.3738 54.5978
3545 1 6.43271 22.3216 54.5095
3328 1 11.0496 20.8671 52.9494
3351 1 16.0916 22.4859 51.3523
3340 1 30.5205 20.7964 52.9233
3359 1 28.8085 22.3913 51.4129
3366 1 7.90659 27.1579 52.9756
3367 1 9.61454 25.723 51.2721
3352 1 17.7348 24.1533 52.9948
3371 1 15.9714 25.7323 51.2861
3358 1 27.2309 24.0989 53.0862
3380 1 30.3913 27.2855 53.0848
3585 1 6.46321 28.9321 54.6109
3391 1 16.0395 28.7206 51.3707
3591 1 15.9374 28.8216 54.5822
3595 1 22.3797 28.8227 54.4107
3399 1 28.7809 28.8166 51.2958
3400 1 30.3133 30.5388 52.975
10981 1 32.0289 29.0381 44.9536
10941 1 32.0689 22.4566 44.9424
3468 1 11.2462 11.2769 56.3532
3450 1 14.2576 8.17041 56.2521
3452 1 17.716 7.94425 56.177
3472 1 17.6428 11.3135 56.3014
3460 1 30.4408 8.07357 56.2436
3480 1 30.3469 11.0896 56.1991
3490 1 14.2552 14.3845 56.1259
3492 1 17.6406 14.5037 56.322
3695 1 22.4086 12.858 57.7172
3496 1 24.0748 14.2431 55.9768
3500 1 30.4613 14.4471 56.2044
3506 1 8.04946 17.5593 56.0581
3727 1 9.62288 19.3129 57.7784
3510 1 14.445 17.5796 56.1616
3514 1 20.7541 17.7324 56.1926
3715 1 22.4884 15.8847 57.7691
3516 1 24.0462 17.7666 56.2405
3765 1 6.4518 25.7011 57.7002
3548 1 11.2394 24.0966 56.1122
3568 1 11.2327 27.2736 56.2001
3552 1 17.6196 24.0603 56.1397
3574 1 20.706 27.2683 56.1798
3578 1 27.3193 27.3466 56.113
3791 1 15.9171 28.9811 57.6057
3596 1 23.9135 30.5349 56.1332
3797 1 25.6508 28.9033 57.7553
3600 1 30.346 30.504 56.252
10921 1 32.085 19.2349 44.9279
10881 1 32.0987 12.8572 44.8761
6819 1 28.9016 31.98 44.8168
7009 1 12.6767 32.0577 48.3111
7205 1 6.53684 32.0906 51.5068
7409 1 12.6644 31.9621 54.5063
7411 1 16.0417 31.9062 54.6331
7613 1 19.1456 32.073 57.6482
7617 1 25.7391 32.0726 57.7644
15001 1 32.0146 32.063 48.0904
5360 1 30.4484 56.1133 20.9253
5358 1 27.2983 56.0793 20.668
5356 1 24.145 56.1234 20.7683
4408 1 11.175 33.6749 7.94345
4410 1 14.576 33.7307 7.97959
4412 1 17.6511 33.6215 7.97369
4433 1 19.3147 35.3993 6.51888
4416 1 23.8696 33.6558 7.93764
4417 1 25.6839 32.1102 6.45045
4420 1 30.4515 33.6899 7.97623
4430 1 14.4526 36.7466 7.98155
4449 1 12.8743 38.6486 6.52803
4451 1 16.0423 38.5863 6.45178
4438 1 27.2409 36.9941 7.96284
4446 1 8.05712 40.0944 8.04712
4467 1 9.73606 41.6739 6.44997
4468 1 11.2823 43.531 7.92975
4452 1 17.7329 40.1337 7.98935
4472 1 17.6745 43.327 8.01391
4454 1 20.805 40.0808 8.00109
4458 1 27.1796 40.1061 7.91121
4476 1 23.9191 43.4887 8.05128
4480 1 30.5519 43.3888 7.96716
4486 1 8.21493 46.6323 7.91608
4491 1 16.111 45.0459 6.49396
4493 1 19.167 45.0354 6.42159
4500 1 30.6045 46.5242 7.9365
4506 1 8.17368 49.7343 8.06361
4510 1 14.5548 49.7266 7.91577
4512 1 17.7344 49.7619 7.94978
4518 1 27.1911 49.9621 8.07311
4520 1 30.463 49.9693 8.14365
4532 1 17.6446 52.8572 7.88645
4534 1 20.9529 52.9421 7.97724
4548 1 11.3697 56.1918 7.98264
4550 1 14.4632 56.151 7.89886
4554 1 20.9618 56.1446 8.01504
4558 1 27.2918 56.1339 7.85167
13081 1 32.0781 44.8752 16.1501
4629 1 12.8152 35.2317 9.66773
4633 1 19.2379 35.3256 9.57566
4635 1 22.3894 35.4591 9.5411
4616 1 23.9864 33.7382 11.2364
4637 1 25.6606 35.3131 9.62195
13021 1 32.1012 35.1801 16.0003
4626 1 8.0888 36.9744 11.32
4630 1 14.5155 36.8396 11.2189
4640 1 30.4963 37.0706 11.3444
4659 1 28.8415 38.6362 9.65051
4669 1 12.8115 41.6653 9.61486
4671 1 16.0421 41.8385 9.70345
4675 1 22.4995 41.6783 9.60014
4677 1 25.6862 41.7072 9.70748
4660 1 30.5827 40.0596 11.3295
4679 1 28.8333 41.6962 9.71405
4686 1 7.99017 46.6343 11.1993
4688 1 11.2776 46.6627 11.1416
4689 1 12.9658 45.0852 9.60019
4696 1 24.1191 46.6197 11.2578
4697 1 25.7107 45.0053 9.61656
4699 1 28.772 44.9912 9.62651
4700 1 30.5387 46.4977 11.3197
4708 1 11.1754 49.6866 11.0817
4711 1 16.0396 48.0648 9.63192
4712 1 17.7176 49.709 11.2552
4733 1 19.2278 51.5227 9.77524
4714 1 20.8344 49.7133 11.2062
4719 1 28.8286 48.2228 9.665
4720 1 30.5367 49.9736 11.2513
4730 1 14.5777 52.9448 11.312
4749 1 12.9582 54.6238 9.71953
4753 1 19.2055 54.4931 9.73314
4736 1 24.1699 52.8476 11.2712
4757 1 25.626 54.5989 9.55548
4767 1 9.43736 57.7509 9.60044
4769 1 13.069 57.7818 9.79771
4773 1 19.2048 57.7746 9.66946
4754 1 20.8725 56.1098 11.2926
4775 1 22.6444 57.7555 9.69252
4758 1 27.2627 56.2535 11.3177
4805 1 6.46831 32.2616 12.8442
5025 1 6.58736 35.3316 15.9882
5007 1 9.5274 32.1982 16.0666
5027 1 9.55457 35.3072 16.0166
4833 1 19.196 35.1015 12.9441
5013 1 19.2448 32.1027 16.0744
5031 1 16.1987 35.0788 16.0994
12621 1 32.0968 35.3264 9.65452
4816 1 23.8951 33.7022 14.5659
4818 1 27.2857 33.656 14.5343
5037 1 25.6525 35.3993 16.1136
4839 1 28.8599 35.1923 12.837
5045 1 6.44821 38.4883 15.9631
4830 1 14.4557 36.8049 14.5836
4849 1 12.7966 38.6629 12.9137
5049 1 12.9283 38.7326 15.9472
4851 1 16.0128 38.5719 12.9685
5051 1 16.007 38.7742 16.0776
4834 1 20.6755 36.9033 14.5386
5055 1 22.419 38.4589 16.0611
4838 1 27.4135 36.9703 14.4504
5057 1 25.5964 38.4342 16.0429
4840 1 30.4348 37.0562 14.5097
4866 1 8.00165 43.2835 14.4876
4868 1 11.2109 43.2183 14.4863
4852 1 17.8212 40.103 14.4659
4871 1 16.0346 41.8997 12.9027
4873 1 19.2702 41.8576 12.893
5071 1 16.0649 41.8065 16.0556
4876 1 24.0729 43.2288 14.3955
4887 1 9.60831 45.063 12.9317
4888 1 11.4442 46.633 14.5387
5087 1 9.64349 45.0797 16.0159
4889 1 13.0115 44.9242 12.7974
4890 1 14.4297 46.6775 14.5798
5089 1 12.9602 44.8346 16.0884
4891 1 16.0242 44.9515 12.7373
4892 1 17.7494 46.5246 14.4438
5091 1 16.0294 44.8373 16.0604
4894 1 20.7139 46.5751 14.4143
5095 1 22.405 44.9419 16.0624
4896 1 24.2455 46.7051 14.5287
4899 1 28.6815 44.9259 12.8979
4900 1 30.4416 46.5855 14.4783
5099 1 28.7648 44.8759 16.0788
5125 1 6.45708 51.3064 16.2115
4907 1 9.5761 48.0658 12.979
4908 1 11.3253 49.6949 14.5461
5127 1 9.64562 51.3607 16.1265
4929 1 12.8205 51.3536 12.8399
4911 1 15.9635 48.06 12.6827
4912 1 17.6573 49.7755 14.2895
5111 1 16.2132 48.2437 16.184
5131 1 16.1583 51.3225 16.1689
4914 1 20.8031 49.7334 14.4335
4915 1 22.5847 48.2546 12.9442
5139 1 28.8186 51.3399 15.9934
5145 1 6.54996 54.6058 16.2222
4930 1 14.6493 52.9333 14.305
4949 1 12.8222 54.6452 12.9223
5149 1 12.9433 54.6312 15.8948
4955 1 22.4494 54.4656 12.8844
4959 1 28.9197 54.5684 12.8706
5159 1 28.8896 54.5594 15.9952
5165 1 6.48311 57.7737 16.1088
4967 1 9.55854 57.645 12.8397
5167 1 9.61453 57.7215 16.0109
4954 1 20.7809 56.1127 14.5204
4956 1 24.1946 56.21 14.5502
4958 1 27.2345 56.3425 14.5202
4960 1 30.5862 56.2558 14.5029
5008 1 11.3934 33.6524 17.5165
5206 1 8.06558 33.7281 20.8689
5227 1 9.63075 35.2977 19.1256
5233 1 19.2242 35.2873 19.0223
5214 1 20.8053 33.7855 20.7488
5016 1 23.8873 33.7454 17.5774
5216 1 24.0145 33.7336 20.7453
5220 1 30.2891 33.8323 20.8018
5028 1 11.3298 36.9677 17.529
5249 1 12.9701 38.6393 19.253
5032 1 17.7438 36.9978 17.4697
5232 1 17.6377 36.8016 20.9238
5251 1 16.0786 38.7 19.2221
5253 1 19.2616 38.6127 19.2575
5234 1 20.8738 36.9093 20.8679
5255 1 22.4052 38.5908 19.1869
5236 1 24.0133 36.9739 20.8571
5257 1 25.5824 38.3825 19.0639
5259 1 28.7922 38.456 19.1362
5046 1 8.08169 40.1148 17.5843
5066 1 8.00525 43.3289 17.5378
5266 1 7.98301 43.2616 20.9107
5269 1 12.9208 41.7875 19.2764
5271 1 16.0328 41.7277 19.2128
5054 1 20.8035 40.3047 17.5593
5056 1 24.0191 40.284 17.5755
5078 1 27.1116 43.2718 17.8129
5258 1 27.0976 40.1544 20.8326
5276 1 24.1051 43.3777 20.7864
5260 1 30.5385 40.032 20.7271
5090 1 14.4062 46.6112 17.7067
5291 1 16.0477 44.9003 19.2771
5094 1 20.6456 46.5274 17.6569
5295 1 22.3221 44.9876 19.2284
5096 1 24.229 46.6175 17.7261
5098 1 27.2506 46.6971 17.739
5100 1 30.414 46.6639 17.6692
5307 1 9.75027 48.1696 19.132
5327 1 9.62344 51.3147 19.2092
5329 1 12.7809 51.3037 19.3513
5311 1 16.2083 48.1948 19.3844
5315 1 22.3742 48.1806 19.2027
5339 1 28.7176 51.2155 19.2241
5328 1 11.1899 53.0421 20.8819
5130 1 14.4567 53.0446 17.7978
5349 1 12.9325 54.7167 19.4256
5132 1 17.7 53.0484 17.745
5332 1 17.5962 53.0444 20.8848
5353 1 19.3539 54.6153 19.342
5134 1 20.8952 52.9102 17.6831
5334 1 20.946 52.823 20.8171
5338 1 27.3058 53.143 20.7017
5340 1 30.3384 53.0868 20.8022
5148 1 11.2589 56.0419 17.5772
5346 1 8.09695 56.309 20.9242
5348 1 11.1285 56.2894 21.0318
5367 1 9.68343 57.7457 19.0813
5152 1 17.6713 56.1846 17.5974
5154 1 20.8144 56.1122 17.4928
5354 1 20.9918 56.0941 20.9673
5427 1 9.85362 35.2818 22.6067
5412 1 17.615 33.8826 23.9183
5414 1 20.78 33.7332 23.9615
5416 1 24.1783 33.6628 24.0332
14541 1 32.0596 54.4054 38.4418
5418 1 27.1971 33.6973 23.9856
5420 1 30.3789 33.7502 24.0311
5432 1 17.5098 36.8898 24.0222
5436 1 24.1076 36.9808 23.9559
5438 1 27.197 36.883 23.9849
5459 1 28.836 38.68 22.5687
5466 1 8.02756 43.1984 23.966
5469 1 12.9432 41.7606 22.4949
5452 1 17.6763 40.2004 24.1417
5471 1 16.0115 41.7894 22.4892
5454 1 20.8038 40.1851 24.0273
5475 1 22.4985 41.7324 22.4165
5480 1 30.4286 43.4099 23.9487
5491 1 16.0701 44.8745 22.51
5525 1 6.48314 51.447 22.2888
5508 1 11.2464 49.6592 24.236
5529 1 12.7896 51.3899 22.48
5513 1 19.2292 48.1832 22.479
5531 1 16.113 51.2805 22.508
5533 1 19.2128 51.2066 22.5925
5515 1 22.34 48.1206 22.4603
5537 1 25.7255 51.4055 22.51
5519 1 28.7791 48.1894 22.4382
5526 1 7.98859 52.8907 24.1122
5549 1 12.8576 54.6443 22.6011
5553 1 19.2861 54.508 22.5073
5557 1 25.7 54.463 22.583
5546 1 8.08382 56.184 24.117
5552 1 17.5274 56.094 24.0709
5558 1 27.3671 56.0701 24.2102
5577 1 25.7625 57.7615 22.4802
5579 1 28.8351 57.7785 22.4215
14661 1 32.0275 51.3855 41.6423
5607 1 9.71451 32.1415 25.689
5610 1 14.429 33.6989 27.1412
5612 1 17.5961 33.6571 27.279
5831 1 16.0524 35.2933 28.9047
5614 1 20.7679 33.6361 27.3216
5635 1 22.3865 35.3707 25.5935
5618 1 27.2354 33.7663 27.3871
5847 1 9.64841 38.5549 28.7783
5630 1 14.4468 36.9929 27.0833
5653 1 19.2664 38.5097 25.6644
5655 1 22.4766 38.5761 25.5703
5636 1 24.1131 36.8996 27.2163
5657 1 25.6693 38.606 25.6311
5859 1 28.7609 38.6172 28.8321
5646 1 7.89003 40.2128 27.285
5666 1 8.03988 43.3284 27.3522
5667 1 9.76956 41.616 25.6977
5669 1 12.9164 41.7265 25.6431
5672 1 17.7759 43.3369 27.1505
5675 1 22.4977 41.8034 25.5447
5656 1 24.0239 40.299 27.3147
5658 1 27.1403 40.291 27.1559
5676 1 23.9865 43.3572 27.2911
5877 1 25.7045 41.6956 29.0435
5686 1 8.11301 46.5859 27.3612
5687 1 9.68153 44.9872 25.6086
5688 1 11.3074 46.5044 27.2833
5891 1 16.0619 45.0095 28.7764
5698 1 27.2022 46.7103 27.0873
5897 1 25.7439 44.9552 28.7668
5699 1 28.8085 44.7976 25.8002
5899 1 28.7597 44.8608 28.7226
5725 1 6.48574 51.3268 26.0001
5727 1 9.62843 51.4011 25.8247
5907 1 9.81698 48.1915 29.0136
5712 1 17.5988 49.8417 27.2344
5713 1 19.2853 48.1465 25.7003
5911 1 16.0359 48.1064 28.9128
5913 1 19.1945 48.0472 28.7738
5931 1 16.0066 51.2153 29.0749
5915 1 22.4327 48.2517 28.6496
5718 1 27.2131 49.8722 27.2365
5720 1 30.4186 49.8237 27.1966
5739 1 28.8343 51.5193 25.5512
5747 1 9.70723 54.487 25.7619
5947 1 9.68803 54.4598 28.8256
5730 1 14.5788 52.8062 27.1505
5749 1 12.8347 54.6025 25.7098
5949 1 12.9417 54.5238 28.8565
5753 1 19.2086 54.5559 25.709
5953 1 19.3066 54.5001 29.0055
5734 1 20.7454 52.7671 27.2253
5955 1 22.4314 54.5045 29.0616
5736 1 24.2211 52.9351 27.2997
5740 1 30.3771 52.9999 27.3733
5769 1 12.8307 57.7677 25.6473
5969 1 12.9048 57.7459 28.9337
5752 1 17.5658 56.2311 27.3975
5775 1 22.517 57.736 25.7273
5975 1 22.4871 57.6823 29.0122
5977 1 25.8221 57.7384 28.8827
5979 1 28.9103 57.764 28.8565
5808 1 11.2102 33.6748 30.3886
6011 1 16.0405 32.1405 32.1777
6012 1 17.7395 33.7303 33.8276
6031 1 16.0704 35.2516 32.1581
5814 1 20.7808 33.6603 30.5843
6035 1 22.4467 35.3237 32.1709
5818 1 27.2317 33.7221 30.5055
13961 1 32.0556 57.7508 28.9221
5828 1 11.1895 36.8312 30.3648
6028 1 11.1927 37.0566 33.7065
6047 1 9.60601 38.5928 31.9194
6049 1 12.8007 38.6914 31.932
6051 1 16.0764 38.6133 32.0437
6055 1 22.36 38.6051 32.0502
5866 1 8.00304 43.3267 30.4003
6046 1 8.09737 40.1132 33.9236
6066 1 8.10475 43.2303 33.8159
6067 1 9.725 41.6846 32.0318
6069 1 12.8418 41.7342 32.0645
5872 1 17.5978 43.3086 30.5479
5876 1 24.001 43.4351 30.4388
6060 1 30.6367 40.2548 33.7799
6079 1 28.7366 41.7163 32.1831
5886 1 7.9751 46.5962 30.3859
6087 1 9.62332 45.0429 32.1178
6088 1 11.3421 46.5745 33.6895
5894 1 20.9474 46.5437 30.3886
6094 1 20.7617 46.5674 33.7607
6095 1 22.4381 44.9691 32.1536
5900 1 30.4318 46.5013 30.4347
6099 1 28.9217 44.9623 32.2696
6110 1 14.4605 49.5979 33.7207
6112 1 17.5213 49.5478 33.8084
6113 1 19.2207 48.1857 32.0529
6131 1 16.1532 51.2425 32.0997
5914 1 20.8355 49.7919 30.4264
5918 1 27.1782 49.7713 30.5019
6119 1 29.0307 48.17 32.149
6120 1 30.6608 49.8546 33.8034
6139 1 28.9237 51.3602 32.0861
5928 1 11.2597 52.902 30.6361
6130 1 14.3385 52.7798 33.6734
6149 1 12.9542 54.6902 32.1665
5938 1 27.3078 52.9986 30.3455
6157 1 25.5357 54.5127 32.0726
5940 1 30.5407 53.008 30.4967
6159 1 28.9881 54.6421 32.1229
6167 1 9.65405 57.6947 32.1304
5952 1 17.6125 56.1971 30.534
13921 1 32.0785 51.2613 28.9733
6227 1 9.72955 35.3777 35.3791
13701 1 32.0575 48.1154 25.6477
6217 1 25.5396 32.1092 35.1944
6220 1 30.5636 33.5515 36.8413
6249 1 12.8002 38.475 35.5033
6255 1 22.2915 38.5293 35.2206
6238 1 27.3499 36.9907 36.9839
6240 1 30.4774 37.1019 37.026
6259 1 28.8355 38.6443 35.2409
6267 1 9.82023 41.8133 35.6046
6250 1 14.3881 40.1735 37.0356
6269 1 12.8015 41.8298 35.4119
6273 1 19.2082 41.7763 35.3456
6274 1 20.974 43.4261 37.0412
6275 1 22.3099 41.6395 35.2917
6256 1 23.9706 40.1023 36.9908
6276 1 23.9519 43.3528 37.0066
6277 1 25.7905 41.7945 35.2811
6279 1 28.7628 41.8005 35.313
6280 1 30.6077 43.3855 36.8864
6285 1 6.62175 44.9568 35.3956
6293 1 19.0743 44.9001 35.4035
6295 1 22.58 45.0862 35.2486
6297 1 25.6877 44.9297 35.2874
6298 1 27.2848 46.6041 36.9015
6306 1 8.05453 49.7128 36.9637
6327 1 9.68865 51.3319 35.3205
6309 1 12.8181 48.0695 35.4537
6310 1 14.4592 49.7544 36.9445
6331 1 16.1601 51.4399 35.2443
6315 1 22.5542 48.2148 35.2195
6317 1 25.5678 48.1999 35.1984
6337 1 25.6668 51.4392 35.3247
6320 1 30.6155 49.7058 36.9549
6328 1 11.3915 52.9581 36.8621
6330 1 14.3693 52.8172 36.9836
6349 1 13.0778 54.6698 35.3047
6336 1 23.903 52.9374 36.9983
6357 1 25.6897 54.4921 35.4107
6365 1 6.51293 57.7084 35.375
6348 1 11.1856 56.0429 36.8151
6369 1 12.9947 57.6251 35.3165
6356 1 23.8976 56.0596 36.9257
6358 1 27.5327 56.1344 36.8897
6360 1 30.4703 56.1138 36.849
6560 1 30.5157 56.0467 40.2175
13661 1 31.9991 41.6743 25.7866
6406 1 8.11367 33.7332 40.2464
13521 1 31.9917 51.4809 22.5365
13501 1 32.0286 48.129 22.483
13461 1 32.057 41.6904 22.3619
6412 1 17.4987 33.661 40.1511
6413 1 19.3174 32.1595 38.6118
6433 1 19.3606 35.2828 38.5727
6607 1 19.305 32.1668 41.675
6616 1 15.8413 35.266 41.6814
6617 1 19.429 35.3576 41.6741
13401 1 32.0942 32.153 22.4048
6416 1 24.0276 33.7374 40.1814
6687 1 19.3694 57.6953 41.723
6437 1 25.6831 35.4493 38.6233
6619 1 25.7466 35.4799 41.6945
6419 1 28.9188 32.1732 38.6233
6439 1 28.9507 35.2915 38.6306
6577 1 25.7512 57.7206 38.4682
6445 1 6.45004 38.6585 38.7255
6451 1 15.9646 38.4971 38.6242
6457 1 25.6151 38.5107 38.6912
6629 1 25.6204 38.5945 41.7262
6440 1 30.6341 37.0672 40.1734
6630 1 28.8685 38.6375 41.691
6468 1 11.3987 43.3098 40.0288
6634 1 9.67511 41.7624 41.6853
6471 1 16.0628 41.7477 38.6603
6472 1 17.6512 43.433 40.2316
6637 1 19.1374 41.6709 41.7881
6474 1 20.9761 43.4043 40.1093
6476 1 24.0186 43.3497 40.1587
6477 1 25.7276 41.8195 38.4804
6478 1 27.2511 43.2 40.3492
6480 1 30.5748 43.295 40.0884
6485 1 6.60984 44.9066 38.495
6486 1 8.15226 46.5488 40.2239
6488 1 11.3483 46.598 40.1184
6644 1 9.67085 44.7732 41.7648
6645 1 12.896 44.819 41.7582
6491 1 16.0441 44.9981 38.5233
6647 1 19.2694 45.0711 41.7975
6494 1 21.0434 46.4647 40.0661
6497 1 25.7505 44.989 38.6231
6649 1 25.6204 45.1266 41.7446
6499 1 28.7853 44.9363 38.5878
6500 1 30.66 46.5656 40.0712
6650 1 28.9122 45.012 41.7411
6653 1 6.44247 48.0803 41.7621
6506 1 8.05629 49.7644 40.1438
6527 1 9.79116 51.281 38.5057
6510 1 14.2982 49.6248 40.0946
6665 1 12.8487 51.4548 41.7437
6511 1 16.1591 48.0474 38.5882
6531 1 16.0947 51.347 38.6834
6656 1 16.1861 48.1732 41.6139
6657 1 19.3852 48.135 41.7219
6666 1 16.001 51.3704 41.7002
6667 1 19.4432 51.1658 41.7309
6535 1 22.4746 51.1982 38.7035
6659 1 25.5288 48.0614 41.6458
6670 1 28.9691 51.3988 41.5523
6545 1 6.53913 54.6765 38.5334
6526 1 7.98116 52.8959 40.0872
6528 1 11.4231 53.0478 39.9072
6547 1 9.51771 54.5545 38.4333
6674 1 9.74214 54.4161 41.7988
6675 1 12.8803 54.4336 41.8189
6553 1 19.3683 54.5509 38.6046
6677 1 19.3418 54.6608 41.7533
6678 1 22.5697 54.5602 41.7088
6557 1 25.7683 54.5037 38.5256
6548 1 11.2659 56.1282 40.158
6569 1 12.9184 57.6614 38.4541
6825 1 6.46186 35.2248 44.863
6808 1 11.2612 33.721 46.5559
6829 1 12.8309 35.1801 44.7782
6812 1 17.6103 33.6594 46.7319
6813 1 19.3365 32.1038 45.128
6831 1 16.0541 35.2551 44.9866
6815 1 22.292 32.1336 45.1068
6817 1 25.7674 32.1145 44.8332
6818 1 27.4175 33.7155 46.4948
6713 1 8.13825 36.9689 43.1771
6714 1 11.1305 36.9392 43.1947
6830 1 14.3924 36.7708 46.6591
6718 1 24.0085 36.8732 43.4356
6838 1 27.3978 37.0272 46.4173
6720 1 30.5172 36.967 43.3215
6723 1 7.97666 40.1258 43.2508
6867 1 9.60307 41.8243 44.8636
6725 1 14.3998 40.2278 43.3568
6852 1 17.7069 40.1031 46.582
6872 1 17.8413 43.4569 46.5829
6873 1 19.2596 41.8092 44.9134
6737 1 20.9557 43.4707 43.3224
6854 1 20.9041 40.1112 46.6624
6739 1 27.2628 43.3152 43.2331
6877 1 25.5702 41.7486 44.7976
6878 1 27.1943 43.2862 46.5751
6730 1 30.5944 40.2047 43.3417
6860 1 30.5247 40.1725 46.4743
6879 1 28.8583 41.819 44.8557
6880 1 30.6055 43.3843 46.4798
6744 1 11.296 46.647 43.1758
6887 1 9.58468 44.8343 44.7883
6888 1 11.207 46.5231 46.5524
6746 1 17.6022 46.55 43.4632
6891 1 16.0452 44.811 44.9892
6894 1 20.9104 46.4201 46.5421
6896 1 23.9852 46.5194 46.586
6897 1 25.713 45.0844 44.9111
6750 1 30.3809 46.7881 43.2952
6906 1 8.11565 49.8765 46.4992
6907 1 9.6143 48.0788 44.876
6909 1 12.8946 48.1536 44.9531
6929 1 12.832 51.4595 44.9317
6913 1 19.3836 48.1931 44.9571
6759 1 27.3537 49.7636 43.262
6917 1 25.6985 48.1957 45.0384
6937 1 25.6817 51.346 45.0055
6947 1 9.69894 54.4755 45.0677
6930 1 14.5632 52.9666 46.5878
6766 1 17.8128 52.9038 43.3582
6932 1 17.6927 52.9252 46.501
6934 1 20.9388 52.8814 46.4
6773 1 8.12396 56.2875 43.3427
6774 1 11.2033 56.2135 43.4133
6775 1 14.4931 56.1151 43.4026
6950 1 14.4802 56.0479 46.5086
6954 1 20.8126 56.1317 46.3641
6779 1 27.4594 56.0054 43.3233
6977 1 25.753 57.6649 44.9657
6960 1 30.6025 55.9604 46.3909
7005 1 6.55848 32.1622 48.0844
7010 1 14.5405 33.7743 49.5943
7012 1 17.6793 33.7472 49.6691
7014 1 20.7545 33.7793 49.8076
7035 1 22.406 35.3033 48.2048
7017 1 25.7227 32.2049 48.234
7039 1 28.8526 35.4226 48.2423
7032 1 17.6902 36.9245 49.8014
7059 1 28.9267 38.5573 48.2495
7069 1 12.9271 41.7182 48.1944
7071 1 16.0163 41.7186 48.1589
7078 1 27.1392 43.3239 49.8356
7087 1 9.66761 44.9723 48.3316
7089 1 12.8834 44.9631 48.2123
7091 1 16.0997 44.9827 48.227
7098 1 27.2453 46.6773 49.6879
7099 1 28.9081 44.9705 48.1967
7125 1 6.51124 51.4081 48.1864
7129 1 12.8039 51.3777 48.1986
7113 1 19.2759 48.2093 48.0458
7114 1 20.9827 49.7821 49.7324
7128 1 11.1497 52.9883 49.8128
7138 1 27.3177 52.8166 49.7356
7159 1 28.8342 54.4559 48.002
7148 1 11.1361 55.9423 49.7537
7152 1 17.7472 56.1918 49.6156
7175 1 22.5482 57.6365 47.9828
7160 1 30.5189 56.0357 49.6771
7227 1 9.63211 35.3411 51.4168
15561 1 32.0789 57.5977 54.5775
7427 1 9.65848 35.2971 54.4878
7210 1 14.4279 33.7809 53.0941
7229 1 12.7866 35.284 51.2858
7212 1 17.6778 33.8323 52.9922
15321 1 32.0461 51.4027 51.3868
7419 1 28.7798 32.1332 54.6639
7228 1 11.3878 36.9541 53.0757
7447 1 9.53196 38.4169 54.5998
7453 1 19.2864 38.5642 54.4946
7234 1 20.9002 36.8762 52.9418
7240 1 30.3626 36.8812 52.8981
7465 1 6.49256 41.7772 54.6452
7246 1 8.15465 40.2203 52.9533
7248 1 11.2251 40.155 53.0315
7268 1 11.2184 43.3858 53.0168
7250 1 14.4925 40.028 53.0139
7270 1 14.4168 43.4762 52.9487
7469 1 12.9599 41.8215 54.6172
7271 1 16.0441 41.7357 51.2856
7475 1 22.4642 41.6828 54.4585
7276 1 24.1928 43.3455 52.9445
7288 1 11.3237 46.461 52.9503
7291 1 16.1644 45.0159 51.2132
7493 1 19.3514 44.8236 54.6549
7295 1 22.4191 44.7974 51.2914
7497 1 25.6364 45.0333 54.5946
7505 1 6.47122 48.0854 54.5281
7525 1 6.63098 51.332 54.4792
7327 1 9.55308 51.2467 51.3912
7310 1 14.3351 49.7532 52.8325
7509 1 12.7373 48.088 54.6437
7312 1 17.6678 49.632 52.8909
7333 1 19.2433 51.3329 51.2893
7513 1 19.3962 48.0603 54.659
7531 1 16.0456 51.3251 54.5205
7533 1 19.3309 51.3653 54.6193
7339 1 29.0337 51.2931 51.3918
7519 1 28.8699 48.293 54.5106
7345 1 6.51435 54.454 51.2665
7549 1 12.7278 54.4091 54.5322
7351 1 16.0143 54.5548 51.2645
7353 1 19.2215 54.521 51.3145
7551 1 16.1998 54.6525 54.553
7555 1 22.361 54.5608 54.6747
7336 1 24.1058 52.8369 52.876
7338 1 27.3796 52.8799 52.8989
7357 1 25.6959 54.5204 51.2891
7367 1 9.5279 57.7552 51.2254
7567 1 9.59553 57.6808 54.6145
7369 1 12.8871 57.6365 51.2499
7573 1 19.149 57.5517 54.6239
7354 1 20.8379 56.1903 52.8507
7577 1 25.6908 57.7395 54.4368
7579 1 28.9829 57.5275 54.4611
15481 1 32.0179 44.9013 54.4906
15281 1 31.9491 44.9162 51.323
7406 1 8.0392 33.6861 56.1989
7410 1 14.3495 33.7229 56.0773
15121 1 32.0195 51.4424 48.2109
7414 1 20.81 33.7284 56.1127
7635 1 22.5238 35.2799 57.6735
7438 1 27.2221 37.0243 56.1285
7440 1 30.4259 36.9779 56.2496
7448 1 11.2944 40.0928 56.087
7667 1 9.58605 41.7413 57.6713
7450 1 14.4848 40.1329 56.1973
7474 1 21.0891 43.2192 56.4033
7478 1 27.1982 43.3324 56.0961
7460 1 30.5025 40.0598 56.2723
7480 1 30.4297 43.4091 56.1624
7693 1 19.2908 44.9053 57.7784
7498 1 27.3476 46.5961 56.0462
7697 1 25.6669 45.1047 57.7629
7508 1 11.1724 49.867 56.2537
7510 1 14.3544 49.8157 56.1054
7512 1 17.626 49.6761 56.181
7516 1 24.1051 49.6913 56.1569
7739 1 28.9468 51.3058 57.6954
7745 1 6.42092 54.5682 57.738
7538 1 27.3716 52.9092 56.1547
7548 1 11.2173 55.976 56.188
7550 1 14.3958 56.0043 56.253
7556 1 24.1546 56.1226 56.2469
7558 1 27.3128 56.083 56.2231
14881 1 32.0816 44.993 44.7011
13209 1 45.065 32.0274 19.2113
12811 1 48.2376 32.0565 12.6728
13009 1 44.9881 31.9308 16.0115
13007 1 41.6772 32.1016 15.9418
12807 1 41.6694 31.9646 12.9023
12613 1 51.1905 31.9434 9.55592
12607 1 41.7586 31.8697 9.67745
12605 1 38.5664 32.0907 9.58351
12411 1 48.1446 31.9559 6.48533
12405 1 38.5772 32.0525 6.43042
9154 1 53.0243 23.9174 17.7876
9373 1 51.3078 25.6567 19.4082
8455 1 54.5733 6.55096 6.48633
9397 1 57.7332 28.9521 19.2063
8462 1 33.6957 11.3338 8.06492
8463 1 35.3872 9.64175 6.55414
8446 1 40.1883 7.99262 8.04414
8448 1 43.3075 8.00364 8.01231
8450 1 46.5262 8.01015 7.97945
8452 1 49.8203 8.03599 7.93998
8482 1 33.745 14.5467 7.90843
8487 1 41.7259 12.8237 6.54196
8490 1 46.6472 14.4036 7.98045
8494 1 53.0549 14.3398 8.05671
8502 1 33.6824 17.5527 7.78763
8506 1 40.0581 17.7758 8.11363
8507 1 41.8212 16.1341 6.47466
8529 1 44.8672 19.2157 6.42993
8512 1 49.7895 17.5731 7.94223
8531 1 48.1837 19.3494 6.5007
8522 1 33.6334 20.8828 7.93626
8524 1 36.9655 20.8433 8.07515
8547 1 41.6647 22.469 6.43032
8542 1 33.7254 24.0787 7.97519
8544 1 36.953 24.1618 8.1134
8552 1 49.7104 23.9427 7.91606
8572 1 49.6226 27.3417 7.90956
8574 1 52.9996 27.3528 7.79772
8556 1 56.1948 23.9278 7.95525
8576 1 56.2833 27.2161 7.90183
8584 1 36.934 30.4539 8.03049
8662 1 33.7449 11.2205 11.3234
8644 1 37.1255 8.10297 11.2474
8666 1 40.0095 11.2563 11.2529
8667 1 41.7219 9.79079 9.64387
8671 1 48.0684 9.58904 9.7193
8672 1 49.7522 11.0761 11.3066
8654 1 53.2052 7.96661 11.2845
8675 1 54.7058 9.67787 9.53343
8683 1 35.4229 12.8866 9.67775
8688 1 43.3228 14.4673 11.3345
8691 1 48.2121 12.8491 9.75302
8697 1 57.7348 12.862 9.62525
8703 1 35.2889 16.0641 9.77199
8721 1 32.2037 19.125 9.70951
8723 1 35.2829 19.1985 9.69076
8705 1 38.6289 15.8701 9.72782
8706 1 40.1694 17.7782 11.2821
8707 1 41.7043 15.9155 9.53958
8727 1 41.8263 19.3727 9.61811
8709 1 44.8066 16.057 9.47087
8710 1 46.4009 17.6399 11.2329
8712 1 49.8052 17.6092 11.0933
8733 1 51.4647 19.2142 9.49832
8715 1 54.6035 16.1395 9.46716
8735 1 54.5994 19.1659 9.47196
8722 1 33.7792 20.9379 11.2781
8741 1 32.2015 22.5657 9.70853
8726 1 40.0655 20.8591 11.3201
8751 1 48.0752 22.2796 9.52597
8761 1 32.1903 25.6981 9.69158
8766 1 40.0113 27.2152 11.1779
8771 1 48.1275 25.7726 9.56703
8773 1 51.284 25.7308 9.51743
8754 1 52.9307 23.9008 11.0075
8775 1 54.5584 25.6216 9.49292
8781 1 32.1512 28.914 9.58639
8783 1 35.2608 28.739 9.52944
8784 1 36.9347 30.4618 11.2678
8787 1 41.8368 28.7832 9.56734
8788 1 43.4938 30.4866 11.2868
8790 1 46.4777 30.4234 11.1967
8796 1 56.2032 30.612 11.0856
9393 1 51.3871 28.9004 19.3814
9377 1 57.6409 25.6333 19.2212
9051 1 48.2694 6.4496 16.024
8842 1 33.764 7.95526 14.471
9390 1 46.722 30.4816 20.976
9065 1 38.5974 9.60736 15.9279
8848 1 43.4101 7.92994 14.434
8867 1 41.7676 9.68819 12.8241
9067 1 41.6929 9.62058 15.8604
8869 1 44.9063 9.69545 12.7588
8870 1 46.6029 11.1743 14.4138
8852 1 49.7804 8.04248 14.3716
8872 1 49.7748 11.0837 14.4026
8873 1 51.5668 9.52762 12.7681
9075 1 54.5304 9.49846 16.0058
8877 1 57.6443 9.69072 12.9129
9077 1 57.6112 9.60295 15.8826
9389 1 45.0345 28.939 19.2379
9081 1 32.1395 12.9124 16.1834
9083 1 35.3306 12.8537 16.1732
8885 1 38.5085 13.0254 12.759
8886 1 40.2176 14.4507 14.5329
8888 1 43.221 14.4959 14.4446
8893 1 51.3777 12.8482 12.7235
9095 1 54.5054 12.7037 16.0425
8896 1 56.0727 14.4725 14.3043
9097 1 57.6785 12.7794 15.9286
8902 1 33.7374 17.683 14.3634
9103 1 35.4422 16.0226 16.0994
9123 1 35.4847 19.3856 15.9683
8905 1 38.6009 16.0157 12.8062
9127 1 41.8319 19.2728 16.0318
8912 1 49.7867 17.6091 14.4955
8931 1 48.101 19.2686 12.7193
8933 1 51.4109 19.191 12.725
9135 1 54.5722 19.2028 16.0169
8916 1 56.2158 17.6208 14.2963
8922 1 33.6689 20.8709 14.2998
9388 1 43.3021 30.4514 20.8553
8926 1 40.0717 20.8155 14.3541
8947 1 41.9322 22.5077 12.7949
8951 1 48.1272 22.3893 12.7317
8953 1 51.2627 22.4265 12.8075
9155 1 54.7515 22.4807 15.9085
8961 1 32.1107 25.6143 12.6955
8962 1 33.7566 27.2776 14.3966
9386 1 40.046 30.5809 20.7978
8964 1 36.9231 27.1392 14.3578
8950 1 46.4789 24.0234 14.3725
8969 1 44.8085 25.6193 12.7018
8972 1 49.6903 27.3514 14.3074
8973 1 51.2514 25.622 12.7191
9171 1 48.2039 25.6082 15.9304
9173 1 51.2819 25.615 16.0366
8954 1 52.9446 24.0542 14.4154
8975 1 54.6513 25.579 12.7913
9177 1 57.7161 25.6166 16.0426
9183 1 35.3839 28.826 16.0773
8984 1 36.8765 30.6639 14.42
8987 1 41.6342 28.9027 12.8766
9193 1 51.3974 28.8621 16.0717
8995 1 54.6123 28.837 12.752
9195 1 54.6593 28.8417 16.2008
8996 1 56.2427 30.4203 14.5042
9186 1 40.0204 30.5852 17.6136
9251 1 48.205 6.44737 19.2786
9242 1 33.6921 8.03965 20.8928
9064 1 36.9721 11.1854 17.7509
9265 1 38.5589 9.53683 19.3721
9048 1 43.3067 8.00655 17.6206
9066 1 40.1988 11.2923 17.7032
9248 1 43.2266 8.00837 20.9116
9050 1 46.431 7.94794 17.5663
9250 1 46.5155 8.00403 20.8534
9269 1 44.8973 9.70829 19.2546
9275 1 54.404 9.54418 19.1187
9056 1 56.2898 7.93251 17.7234
9276 1 56.1299 11.1558 20.8114
9082 1 33.8051 14.5979 17.7797
9383 1 35.3934 28.8088 19.1479
9284 1 36.9045 14.4383 20.8428
9090 1 46.524 14.5196 17.75
9289 1 44.8377 12.7858 19.3071
9290 1 46.5781 14.3947 20.9164
9292 1 49.6194 14.3351 20.9291
9293 1 51.2914 12.6598 19.1353
9294 1 52.868 14.333 20.8707
9096 1 56.0969 14.4628 17.7403
9102 1 33.8399 17.6623 17.7725
9382 1 33.6828 30.4073 20.8131
9104 1 37.0338 17.6992 17.6306
9305 1 38.5977 16.0659 19.3117
9106 1 40.0422 17.6928 17.5678
9307 1 41.7917 16.1008 19.3614
9327 1 41.8375 19.1012 19.2124
9329 1 44.9418 19.182 19.1966
9112 1 49.6663 17.6703 17.7096
9313 1 51.3356 16.0837 19.2758
9331 1 47.9717 19.2846 19.3897
9314 1 52.9238 17.7012 20.7968
9116 1 56.2109 17.6149 17.7047
9122 1 33.846 20.7895 17.7678
9322 1 33.7839 20.7974 20.7972
9343 1 35.3921 22.5964 19.221
9326 1 40.1852 20.7781 20.8118
9328 1 43.3166 20.7709 20.9268
9132 1 49.667 20.7548 17.6654
9351 1 47.9963 22.3299 19.4436
9353 1 51.1562 22.36 19.456
9134 1 52.9878 20.929 17.7507
9334 1 53.0112 20.9296 20.8588
9357 1 57.7118 22.4263 19.3299
9342 1 33.5577 24.1859 20.9109
9144 1 36.9743 24.1712 17.4749
9364 1 36.9296 27.2363 20.8875
9348 1 43.3197 24.0559 20.8338
9368 1 43.3608 27.1474 20.8656
9150 1 46.5677 24.0218 17.6827
9170 1 46.5603 27.2709 17.6479
9152 1 49.6775 23.9877 17.7409
9172 1 49.6698 27.3044 17.7704
9352 1 49.6781 24.0623 21.1001
9445 1 38.4935 6.45028 22.4841
9449 1 44.9879 6.45472 22.514
9464 1 36.9409 11.1535 24.1105
9465 1 38.5452 9.61775 22.382
9466 1 40.1092 11.235 24.263
9452 1 49.7819 7.95564 23.9842
9471 1 48.1071 9.6061 22.5139
9476 1 56.1201 11.1358 24.181
9485 1 38.6374 12.8193 22.4647
9487 1 41.788 12.8453 22.5015
9490 1 46.5555 14.4687 24.071
9492 1 49.6196 14.38 24.0269
9495 1 54.6102 12.8499 22.4566
9497 1 57.7337 12.8304 22.3738
9508 1 43.3145 17.6369 24.0765
9509 1 44.7959 15.9784 22.3819
9511 1 48.0566 16.2311 22.4566
9512 1 49.7174 17.6423 24.17
9513 1 51.2959 16.086 22.4517
9533 1 51.2529 19.3451 22.5372
9514 1 52.9639 17.6577 24.2094
9535 1 54.5837 19.2807 22.4869
9516 1 56.131 17.5732 24.2353
9522 1 33.9213 20.8792 24.1712
9545 1 38.5232 22.5362 22.5266
9528 1 43.3031 20.6667 24.0028
9547 1 41.7124 22.5265 22.5654
9553 1 51.2331 22.3144 22.634
9536 1 56.1977 20.9366 24.0984
9564 1 36.8726 27.3444 24.2151
9565 1 38.5288 25.5497 22.5048
9566 1 40.1878 27.2017 24.2069
9567 1 41.6021 25.6515 22.4743
9568 1 43.3848 27.1579 24.1195
9554 1 52.9809 24.0901 24.0586
9575 1 54.6381 25.7187 22.5207
9581 1 32.126 28.7639 22.5588
9585 1 38.549 28.8727 22.5028
9590 1 46.6033 30.4764 24.1914
9592 1 49.6972 30.5027 24.1614
9593 1 51.4351 28.8412 22.5333
9596 1 56.1851 30.4379 24.191
9597 1 57.7766 28.9111 22.4611
10594 1 53.0478 30.5283 40.1127
10697 1 51.3379 28.8907 41.6209
9649 1 44.931 6.50788 25.6715
9849 1 44.9693 6.45609 29.062
9653 1 51.1918 6.42101 25.8571
9661 1 32.1144 9.55905 25.7238
9664 1 36.9625 11.1726 27.362
9865 1 38.4726 9.69309 29.0339
9646 1 40.0145 8.02179 27.3464
9668 1 43.223 11.2432 27.4244
9670 1 46.5178 11.1717 27.443
9671 1 48.0836 9.62336 25.5941
9672 1 49.6231 11.3106 27.3731
9673 1 51.245 9.60231 25.7021
9873 1 51.2488 9.542 28.874
9682 1 33.5966 14.5716 27.0937
9881 1 32.3371 12.8211 28.8979
9883 1 35.3357 12.9316 28.8748
9685 1 38.5356 12.9285 25.8162
9689 1 44.9428 12.7792 25.6189
9889 1 44.9521 12.9128 28.8988
9895 1 54.638 12.8822 28.817
9697 1 57.7775 12.846 25.7914
9702 1 33.8005 17.5555 27.1732
9721 1 32.1929 19.2043 25.5942
9901 1 32.1604 16.1007 29.0729
9921 1 32.1955 19.2233 28.9873
9708 1 43.262 17.6267 27.2491
9907 1 41.579 15.9374 28.7919
9710 1 46.478 17.4984 27.1697
9713 1 51.3035 16.0054 25.822
9731 1 48.0748 19.2187 25.5927
9931 1 48.1562 19.1875 28.9338
9915 1 54.6575 16.1135 28.862
9722 1 33.8572 20.8769 27.1534
9941 1 32.2294 22.4247 29.0136
9943 1 35.257 22.3867 29.0474
9745 1 38.5771 22.5027 25.7416
9945 1 38.5734 22.4985 28.8353
9728 1 43.2629 20.7143 27.2562
9747 1 41.7501 22.6165 25.7049
9947 1 41.8062 22.5303 28.8652
9732 1 49.7492 20.8107 27.2307
9736 1 56.1676 20.7725 27.343
9761 1 32.163 25.8183 25.749
9961 1 32.1791 25.7778 28.8695
9744 1 36.7737 24.1055 27.4053
9764 1 36.769 27.287 27.3297
9765 1 38.5793 25.5764 25.8038
9969 1 44.9685 25.6736 28.7598
9752 1 49.6928 24.1262 27.2386
9771 1 48.001 25.6527 25.6311
9754 1 52.9415 24.1542 27.1747
9756 1 56.1812 24.0225 27.2242
9776 1 56.1522 27.4012 27.2209
9781 1 32.1051 28.8385 25.7807
9981 1 32.1145 28.8142 28.8263
9983 1 35.1761 28.8174 28.9993
9784 1 36.8326 30.3542 27.2946
9785 1 38.6348 28.8199 25.8302
9985 1 38.5529 28.7725 28.9471
9787 1 41.793 28.8073 25.8135
9788 1 43.3683 30.5357 27.3923
9793 1 51.4458 28.7802 25.5429
9993 1 51.4177 28.7995 29.0394
9794 1 52.9373 30.4397 27.1927
10051 1 48.1162 6.45437 32.1318
9862 1 33.7808 11.1272 30.5887
10062 1 33.7971 11.1865 33.5617
10063 1 35.5842 9.4795 32.0118
10065 1 38.4732 9.53576 32.09
9868 1 43.2315 11.1763 30.5784
10066 1 40.2111 11.239 33.7072
10052 1 49.7458 8.0056 33.9583
10072 1 49.5606 11.2125 33.8359
10073 1 51.2489 9.69054 32.1332
9854 1 52.8609 7.98721 30.5278
9876 1 56.2385 11.2194 30.4225
10056 1 56.1155 7.9689 33.7096
10081 1 32.1184 12.9857 32.1576
10082 1 33.92 14.4695 33.7242
9888 1 43.1486 14.4115 30.5478
10092 1 49.6402 14.3462 33.7023
9894 1 52.9379 14.4398 30.4884
10096 1 56.1201 14.4949 33.6713
9902 1 33.938 17.5978 30.6761
10102 1 33.8411 17.6189 33.7313
10121 1 32.1191 19.2052 32.0324
9904 1 36.9116 17.581 30.5214
9908 1 43.2455 17.6902 30.5252
9910 1 46.4846 17.7646 30.663
10109 1 44.8701 16.045 32.1578
10110 1 46.5195 17.7487 33.6961
10112 1 49.7673 17.7458 33.7741
10133 1 51.319 19.3443 32.1816
9914 1 52.8363 17.6717 30.3979
10135 1 54.5655 19.2112 32.0937
10143 1 35.322 22.4878 32.1636
10147 1 41.6966 22.4989 32.2236
9934 1 52.9377 20.7977 30.4317
9936 1 56.2042 20.8449 30.4096
10136 1 56.1368 20.9093 33.6484
10161 1 32.2813 25.6285 32.1037
9948 1 43.3058 24.2001 30.4698
9966 1 40.2688 27.2075 30.5096
10148 1 43.3845 24.1982 33.9333
10167 1 41.8398 25.7292 32.2576
9970 1 46.5833 27.1908 30.4638
10169 1 44.972 25.7051 32.2025
10171 1 48.1241 25.6481 32.2422
10154 1 52.9334 24.1285 33.7311
10175 1 54.5936 25.7975 31.969
10176 1 56.0175 27.263 33.8297
9982 1 33.6917 30.4787 30.667
10181 1 32.1534 28.7377 32.1277
10182 1 33.6865 30.4785 33.6735
10185 1 38.4569 28.7541 32.0771
10186 1 40.2944 30.4658 33.657
10189 1 44.8556 28.861 32.1227
9992 1 49.7445 30.465 30.5622
10192 1 49.7102 30.4902 33.8189
10193 1 51.3975 28.7976 32.0507
10194 1 52.9746 30.4726 33.7736
10241 1 32.2112 6.42853 35.2687
10263 1 35.3606 9.65288 35.467
10246 1 40.117 8.02644 36.9597
10267 1 41.7918 9.48369 35.3544
10268 1 43.3567 11.2636 36.8736
10254 1 52.7618 7.96294 36.81
10274 1 53.0792 11.2939 36.9993
10256 1 56.2782 7.95245 37.0282
10283 1 35.3828 12.6995 35.5233
10285 1 38.4281 12.8518 35.3954
10288 1 43.358 14.5048 36.9528
10291 1 47.923 12.8442 35.5332
10293 1 51.4361 12.7579 35.2948
10294 1 53.1505 14.3606 36.9419
10296 1 56.153 14.4026 36.9254
10325 1 38.4656 19.0893 35.1497
10307 1 41.7063 16.1967 35.2252
10308 1 43.4256 17.625 37.0097
10312 1 49.8525 17.7449 36.8605
10313 1 51.4465 16.0041 35.3604
10316 1 56.1917 17.5084 36.7595
10343 1 35.269 22.5026 35.2703
10324 1 37.0035 20.8805 36.8906
10326 1 40.0011 20.8569 36.865
10361 1 32.288 25.5545 35.2695
10344 1 36.9721 24.0933 36.789
10368 1 43.3918 27.2811 36.8681
10350 1 46.6988 24.0289 36.9612
10352 1 49.7517 24.0558 36.9497
10371 1 48.0908 25.721 35.2714
10372 1 49.8212 27.2593 36.9159
10354 1 52.8374 24.1003 36.8569
10356 1 56.1963 24.0868 36.9689
10376 1 55.9867 27.3783 36.9212
10377 1 57.7826 25.7027 35.3381
10385 1 38.5173 28.7586 35.2644
10388 1 43.3734 30.5237 36.9134
10397 1 57.7188 28.9873 35.2306
10588 1 43.3665 30.5369 40.0359
10691 1 32.1907 28.9172 41.7765
10581 1 32.1915 28.8652 38.4766
10689 1 57.6834 25.6239 41.8196
10453 1 51.2709 6.42652 38.6095
10463 1 35.3151 9.6311 38.5705
10448 1 43.3252 7.83961 40.1043
10467 1 41.8377 9.5829 38.5587
10469 1 44.9586 9.58063 38.5596
10635 1 44.957 9.72786 41.6839
10452 1 49.5136 8.09796 40.1801
10472 1 49.5826 11.2419 40.1908
10473 1 51.3528 9.59374 38.6153
10637 1 51.3776 9.61633 41.7128
10454 1 53.099 7.92495 40.2461
10474 1 53.0801 11.3443 40.1425
10475 1 54.6877 9.56968 38.6298
10639 1 57.6934 9.69549 41.6507
10585 1 38.5341 28.7561 38.4924
10642 1 35.0995 12.81 41.6189
10484 1 36.9482 14.4746 40.047
10643 1 38.6182 12.7764 41.7758
10486 1 40.1896 14.494 40.0447
10488 1 43.4086 14.4121 40.0766
10645 1 45.0302 12.7436 41.783
10492 1 49.6761 14.3983 40.1797
10647 1 51.4358 13.0341 41.8835
10494 1 53.132 14.4955 40.1215
10523 1 35.2651 19.2283 38.4779
10692 1 35.3775 28.7642 41.7204
10652 1 35.1821 16.0673 41.6723
10661 1 32.1937 19.2533 41.8158
10653 1 38.5283 16.0759 41.7348
10506 1 40.0209 17.6556 39.9385
10527 1 41.8528 19.39 38.5726
10654 1 41.8176 16.2026 41.6482
10510 1 46.5139 17.7526 40.0717
10655 1 44.949 16.1219 41.7513
10665 1 44.8532 19.3605 41.7393
10511 1 48.0898 16.016 38.4703
10656 1 48.1411 16.0166 41.8637
10657 1 51.4053 16.0264 41.8304
10666 1 48.249 19.4024 41.9037
10667 1 51.399 19.262 41.8137
10535 1 54.5829 19.1636 38.542
10517 1 57.6395 16.1176 38.7137
10537 1 57.6652 19.2466 38.5418
10526 1 40.0399 20.9531 40.2143
10677 1 51.4038 22.5716 41.893
10555 1 54.5537 22.4818 38.5539
10565 1 38.5392 25.6573 38.603
10567 1 41.6641 25.6129 38.4916
10568 1 43.4259 27.343 40.0822
10569 1 45.0104 25.6543 38.5089
10552 1 49.6615 24.0495 40.0256
10572 1 49.6278 27.2019 40.0849
10686 1 48.0887 25.7306 41.8721
10687 1 51.4382 25.5978 41.7209
10688 1 54.4942 25.5018 41.7476
10576 1 55.9815 27.4077 40.2288
10577 1 57.7604 25.8078 38.6306
13409 1 44.9357 32.0351 22.4458
13413 1 51.4175 32.0463 22.4669
13815 1 54.5978 32.0567 28.9418
14009 1 44.9386 32.0832 32.0396
14403 1 35.2124 32.0198 38.4509
14603 1 38.5781 32.0525 41.7433
10862 1 33.5793 11.2395 46.5946
10732 1 36.8295 11.1915 43.2491
10864 1 36.9745 11.1808 46.5745
10865 1 38.6159 9.67887 44.8108
10724 1 43.353 7.91325 43.1843
10867 1 41.8076 9.65384 44.858
10850 1 46.661 8.0034 46.4424
10870 1 46.5614 11.2564 46.5571
10726 1 49.5493 7.96915 43.2417
10852 1 49.8301 7.9511 46.4934
10871 1 48.1974 9.7867 44.8981
10727 1 53.094 7.98916 43.2529
10737 1 53.0734 11.3166 43.3975
10874 1 53.0474 11.3102 46.6099
10875 1 54.7009 9.66697 44.9558
10856 1 56.0695 8.06747 46.7485
10742 1 36.9053 14.5053 43.379
10885 1 38.609 12.7612 44.8453
10890 1 46.6573 14.48 46.5421
10891 1 48.2004 12.8631 44.8465
10893 1 51.3876 12.9452 44.9529
10903 1 35.1138 16.0667 45.0286
10752 1 36.8478 17.7307 43.4122
10925 1 38.5762 19.4407 45.0186
10753 1 40.072 17.6204 43.4111
10908 1 43.429 17.8314 46.4769
10927 1 41.541 19.3665 44.9287
10909 1 44.9965 15.9526 44.8363
10910 1 46.6196 17.6335 46.3683
10931 1 48.2516 19.4027 44.9645
10933 1 51.3923 19.2113 45.0848
10757 1 53.0723 17.6218 43.4957
10758 1 56.0998 17.6655 43.4309
10916 1 55.9983 17.6607 46.5606
10761 1 33.8758 20.8656 43.3146
10943 1 35.3062 22.5781 44.9529
10945 1 38.5463 22.456 44.9947
10928 1 43.3315 20.8101 46.5496
10949 1 44.9141 22.5488 45.0268
10932 1 49.9018 21.0358 46.5865
10951 1 48.1848 22.4371 44.9232
10934 1 53.078 20.9315 46.627
10955 1 54.7252 22.5377 44.8758
10936 1 56.1174 20.8843 46.6494
10781 1 33.7004 27.1685 43.4266
10961 1 32.1738 25.5033 45.0129
10964 1 36.8678 27.2866 46.6256
10773 1 40.1131 24.0473 43.2734
10784 1 43.3683 27.3059 43.3781
10967 1 41.7758 25.5637 45.0193
10968 1 43.3834 27.2555 46.744
10950 1 46.6018 24.2108 46.7122
10970 1 46.5276 27.2726 46.7094
10786 1 49.7735 27.347 43.4185
10971 1 48.1473 25.7125 44.9105
10972 1 49.7744 27.1943 46.64
10787 1 53.0167 27.211 43.4093
10954 1 52.9073 24.0812 46.5463
10974 1 52.8677 27.0831 46.5826
10977 1 57.7462 25.5176 45.0155
10982 1 33.8488 30.4019 46.6086
10983 1 35.4498 28.9636 44.7713
10984 1 37.0077 30.4386 46.7379
10987 1 41.6716 28.9844 44.955
10796 1 49.6362 30.4548 43.3497
10993 1 51.4091 28.8867 45.027
10996 1 56.2086 30.3336 46.595
11043 1 35.2479 6.5183 48.1013
11064 1 36.9638 11.2564 49.8027
11048 1 43.228 8.03855 49.6745
11050 1 46.6594 7.97396 49.7942
11069 1 44.9752 9.6009 48.1279
11071 1 48.3002 9.67838 48.1975
11083 1 35.2438 12.9361 48.0431
11084 1 36.8361 14.4491 49.8115
11085 1 38.5373 12.8953 48.1479
11086 1 40.1848 14.4686 49.8188
11089 1 44.9766 12.84 48.2278
11090 1 46.5964 14.4855 49.7632
11091 1 48.3093 12.8307 48.2246
11094 1 52.955 14.5408 49.6787
11123 1 35.2535 19.3068 48.0205
11104 1 36.8594 17.7708 49.7925
11107 1 41.6993 16.145 48.04
11108 1 43.2598 17.7012 49.7411
11109 1 45.0096 16.1543 48.1654
11129 1 45.1678 19.3008 48.2102
11111 1 48.2763 16.1384 48.2094
11112 1 49.9744 17.6468 49.8495
11131 1 48.1915 19.2297 48.1142
11114 1 52.958 17.629 49.7917
11137 1 57.7203 19.2163 48.2219
11141 1 32.2183 22.4295 48.1585
11145 1 38.5524 22.4081 48.0127
11128 1 43.2647 20.862 49.7322
11147 1 41.6965 22.554 48.0734
11132 1 49.8359 20.736 49.8307
11151 1 48.0687 22.4489 48.2861
11153 1 51.3198 22.6038 48.3343
11161 1 32.2574 25.565 48.1576
11162 1 33.7575 27.41 49.7022
11163 1 35.2131 25.5155 48.2062
11165 1 38.6607 25.6031 48.1637
11146 1 40.1201 24.0026 49.9639
11148 1 43.3371 24.118 49.7668
11168 1 43.3538 27.1155 49.7241
11154 1 53.1629 24.0424 49.9242
11174 1 52.9371 27.1762 49.8789
11156 1 56.2147 24.0497 49.8202
11176 1 56.2559 27.1285 49.8061
11182 1 33.7542 30.4471 49.751
11187 1 41.6692 28.8862 48.3017
11191 1 48.1158 28.8839 48.3131
11194 1 52.9067 30.4226 49.8109
11195 1 54.5682 28.7826 48.2308
11196 1 56.2587 30.5612 49.8035
11443 1 35.1926 6.43648 54.4102
11249 1 45.0389 6.43689 51.4374
11253 1 51.4667 6.5387 51.2176
11262 1 33.8093 11.3414 52.9186
11244 1 37.0136 8.1492 52.9537
11246 1 40.0038 8.17812 52.9585
11268 1 43.2972 11.2962 53.0509
11269 1 45.0427 9.68117 51.3567
11469 1 45.0706 9.64721 54.6033
11252 1 49.7878 7.99169 52.8943
11471 1 48.2458 9.69555 54.5691
11275 1 54.4375 9.65304 51.1996
11475 1 54.4798 9.57024 54.6374
11256 1 56.3508 8.11409 52.894
11276 1 56.2829 11.1413 52.9463
11481 1 32.1099 12.7567 54.6401
11287 1 41.7703 12.907 51.4205
11290 1 46.7317 14.4728 53.1013
11295 1 54.5975 12.9914 51.39
11302 1 33.7741 17.8011 53.0642
11321 1 32.247 19.3418 51.292
11308 1 43.1853 17.6463 53.0755
11309 1 45.0083 16.1029 51.4677
11329 1 45.0786 19.2458 51.4504
11312 1 49.9103 17.6425 52.8794
11331 1 47.9988 19.2258 51.3889
11531 1 48.2129 19.2662 54.5894
11335 1 54.6868 19.3572 51.3156
11515 1 54.5524 16.0519 54.3986
11535 1 54.6368 19.3378 54.5628
11317 1 57.6329 16.0384 51.1943
11337 1 57.6362 19.4219 51.3074
11343 1 35.2592 22.3674 51.3895
11541 1 32.1306 22.4067 54.6427
11543 1 35.3927 22.4052 54.5007
11349 1 45.0765 22.4516 51.3338
11353 1 51.188 22.6157 51.3756
11553 1 51.2139 22.445 54.5619
11342 1 33.6709 24.0815 53.0027
11363 1 35.3604 25.6404 51.4035
11561 1 32.1867 25.7871 54.7635
11346 1 40.1463 23.9844 52.9322
11366 1 40.1749 27.1948 52.8806
11567 1 41.8723 25.6427 54.5329
11569 1 44.8219 25.6954 54.473
11371 1 48.1923 25.6657 51.3294
11373 1 51.1893 25.6071 51.4871
11354 1 53.1434 23.9532 52.9481
11575 1 54.5837 25.7165 54.5172
11383 1 35.4296 28.8963 51.4494
11581 1 32.1538 28.898 54.6271
11384 1 36.9733 30.5902 52.9913
11386 1 40.2288 30.5438 52.8819
11389 1 44.9265 28.8498 51.3059
11392 1 49.8049 30.3456 52.9723
11394 1 52.8507 30.3468 52.923
11396 1 56.1956 30.5041 52.9182
11442 1 33.6538 8.01757 56.1916
11468 1 43.1801 11.3432 56.2475
11669 1 45.1419 9.73767 57.7129
11452 1 49.7621 7.87135 56.3005
11673 1 51.4437 9.70452 57.7542
11474 1 53.0454 11.4045 56.163
11456 1 56.2057 8.04181 56.2073
11482 1 33.8052 14.375 56.1722
11488 1 43.2408 14.376 56.1896
11490 1 46.7132 14.5002 56.1005
11689 1 45.1532 12.708 57.7376
11691 1 48.1733 12.6823 57.7637
11504 1 36.964 17.7209 56.2291
11707 1 41.7149 16.1055 57.7596
11510 1 46.6156 17.5832 56.1049
11709 1 44.812 16.2008 57.7561
11514 1 52.8814 17.5839 56.2127
11516 1 56.2792 17.5938 56.1683
11526 1 40.2124 20.8443 56.1312
11530 1 46.5414 20.9616 56.1693
11544 1 36.8758 24.024 56.2515
11548 1 43.4403 23.9985 56.2916
11552 1 49.6321 24.121 56.1902
11572 1 49.7029 27.153 56.1425
11554 1 53.0102 23.8837 56.1213
11775 1 54.469 25.6015 57.7571
11582 1 33.8644 30.4993 56.1856
11588 1 43.3601 30.4774 56.0436
11789 1 44.9893 28.7615 57.72
11592 1 49.7759 30.5485 56.1881
14805 1 38.5433 32.0609 44.8992
14809 1 45.1316 31.9707 44.9384
15209 1 44.8479 32.0261 51.3212
15415 1 54.4489 31.9734 54.5638
13156 1 56.1569 56.1318 17.7243
13354 1 53.1726 56.1819 20.8648
12402 1 33.7123 33.7155 7.90867
12406 1 40.324 33.6028 7.96902
12408 1 43.3794 33.4922 7.94806
12427 1 41.865 35.4552 6.46022
12431 1 48.103 35.2813 6.51703
12414 1 52.9462 33.651 8.02125
12424 1 36.9192 36.9778 8.01143
12432 1 49.8069 36.9231 7.97799
12434 1 52.9959 36.8891 7.9332
12436 1 56.1212 36.8843 7.7815
12442 1 33.8003 40.1533 8.06111
12462 1 33.7546 43.2645 7.95186
12466 1 40.0759 43.438 8.00846
12467 1 41.7543 41.6415 6.53923
12468 1 43.4369 43.4693 7.97559
12450 1 46.4971 40.111 7.86347
12475 1 54.4668 41.7287 6.45223
12488 1 43.4212 46.5012 8.15088
12490 1 46.5059 46.5376 8.11634
12501 1 32.2519 48.3642 6.49062
12523 1 35.1523 51.3264 6.49137
12504 1 36.993 49.873 7.97477
12506 1 39.9632 49.8425 7.95229
12508 1 43.4742 49.7196 8.0012
12513 1 51.1722 48.0693 6.52928
12514 1 52.9541 49.741 7.97139
12516 1 56.176 49.759 8.14436
12534 1 52.9847 53.0117 8.02265
12536 1 56.1876 53.0947 8.15904
12546 1 40.0939 56.0885 8.08471
12548 1 43.3098 56.2348 8.0284
12550 1 46.5996 56.2682 7.87401
12556 1 56.1252 56.2664 7.98103
12602 1 33.7731 33.6944 11.3311
12625 1 38.5991 35.4339 9.63168
12606 1 40.1583 33.6709 11.2457
12608 1 43.3928 33.5865 11.2212
12627 1 41.7734 35.445 9.5275
12612 1 49.8093 33.8283 11.0902
12616 1 56.1675 33.5867 11.0442
12643 1 35.4431 38.5205 9.79628
12628 1 43.1964 36.9944 11.2559
12647 1 41.6896 38.6869 9.5508
12630 1 46.6355 37.0135 11.2341
12651 1 48.1464 38.4872 9.56105
12655 1 54.5563 38.6576 9.56243
12636 1 56.1124 36.9974 11.2821
12662 1 33.7523 43.3356 11.2151
12664 1 36.8529 43.2914 11.1631
12665 1 38.5763 41.6155 9.62383
12650 1 46.5753 40.1903 11.251
12652 1 49.8013 40.1199 11.2589
12677 1 57.5493 41.7472 9.64074
12683 1 35.3661 45.1028 9.49576
12685 1 38.3736 45.0444 9.63891
12688 1 43.2723 46.6142 11.2499
12692 1 49.718 46.5773 11.2323
12693 1 51.3142 44.8993 9.51405
12705 1 38.3899 48.0259 9.64618
12725 1 38.509 51.5547 9.73461
12707 1 41.6453 48.1936 9.55217
12727 1 41.6955 51.4637 9.61562
12729 1 44.9553 51.3556 9.64047
12712 1 49.6364 49.6886 11.1898
12733 1 51.3485 51.4352 9.61048
12715 1 54.593 48.086 9.77643
12717 1 57.7482 48.0307 9.84929
12749 1 44.9719 54.6266 9.60503
12753 1 51.3329 54.6652 9.60958
12757 1 57.7418 54.7955 9.80342
12763 1 35.3158 57.7209 9.6341
12748 1 43.1513 56.146 11.2615
12771 1 48.0538 57.7378 9.77704
12802 1 33.8971 33.6143 14.3469
12823 1 35.4779 35.5156 12.8349
13001 1 32.1327 32.2079 16.028
13023 1 35.387 35.3042 16.0915
12808 1 43.4481 33.7535 14.4399
12827 1 41.5648 35.3485 12.9634
13154 1 53.1027 56.1846 17.8295
12810 1 46.5631 33.6441 14.4251
12829 1 44.9626 35.3724 12.771
13013 1 51.4894 32.109 15.9875
13033 1 51.3846 35.4797 15.9831
12815 1 54.5959 32.2271 12.953
13015 1 54.627 32.1779 16.0249
13035 1 54.4937 35.3273 15.9538
12837 1 57.7538 35.2692 12.8485
13017 1 57.7219 32.193 16.1149
12822 1 33.5848 37.0411 14.4541
13047 1 41.8075 38.5727 16.0549
12830 1 46.55 37.0192 14.4228
12849 1 44.8809 38.5688 12.6768
13049 1 44.9332 38.7036 16.1357
12834 1 53.0213 37.1454 14.256
13055 1 54.5075 38.6262 16.1793
12836 1 56.1323 37.0315 14.3961
12857 1 57.764 38.6969 12.8129
13057 1 57.7459 38.5688 16.1106
12863 1 35.3339 41.668 12.9394
12844 1 37.0369 40.1785 14.5855
12846 1 40.0634 40.1455 14.4427
12848 1 43.3447 40.1458 14.2258
12868 1 43.35 43.3869 14.2769
13067 1 41.815 41.7306 16.0322
13069 1 44.9254 41.6289 16.1112
12871 1 48.2581 41.8338 12.7966
12875 1 54.67 41.7695 12.7826
12877 1 57.633 41.756 12.8139
13077 1 57.5361 41.7016 15.8879
12882 1 33.7084 46.5226 14.3862
13083 1 35.4131 44.8659 16.0579
12886 1 40.1598 46.5565 14.4423
13089 1 44.9475 45.0102 16.0246
13091 1 48.2376 44.9345 15.9823
13095 1 54.5961 44.9103 15.9405
13097 1 57.763 44.9854 15.9743
12902 1 33.7429 49.9101 14.3801
13103 1 35.3142 48.2304 15.9775
12905 1 38.4055 48.1118 12.8936
12906 1 40.0359 49.9042 14.4882
12908 1 43.3396 49.7996 14.3578
13107 1 41.7754 48.2807 16.0939
13109 1 44.8321 48.3038 16.1373
12913 1 51.398 48.1812 13.0065
12933 1 51.2993 51.3442 12.9207
12915 1 54.555 48.1914 12.9503
13135 1 54.6708 51.3336 16.0704
12922 1 33.6239 52.9096 14.3908
12943 1 35.2935 54.7068 12.9418
12928 1 43.2401 52.9638 14.4165
13149 1 44.7949 54.5594 16.1023
12953 1 51.402 54.6342 12.7831
13151 1 48.2131 54.3746 16.1385
12934 1 52.9749 52.8899 14.4908
12955 1 54.4541 54.6494 12.7646
13155 1 54.5347 54.6599 15.9781
13165 1 38.5297 57.6614 16.0644
12950 1 46.5866 56.1471 14.4643
12952 1 49.7088 56.1924 14.4571
13173 1 51.4797 57.7321 15.9835
13175 1 54.5375 57.7195 15.9637
12956 1 56.2951 56.1468 14.3486
13206 1 40.0127 33.7357 20.7738
13208 1 43.4146 33.7951 20.9185
13010 1 46.5403 33.7785 17.4985
13012 1 49.7668 33.6517 17.5397
13211 1 48.1436 32.1154 19.2405
13231 1 48.2535 35.3262 19.2623
13233 1 51.3456 35.3816 19.2861
13016 1 56.0656 33.8315 17.811
13024 1 37.0266 36.9873 17.6377
13224 1 36.9477 36.9861 20.8616
13028 1 43.3872 36.9355 17.6883
13226 1 40.2239 37.0383 20.8322
13230 1 46.4608 36.9387 20.8973
13251 1 48.1423 38.4845 19.1356
13262 1 33.6395 43.5769 20.9048
13263 1 35.2341 41.8204 19.2213
13265 1 38.5558 41.7573 19.2872
13066 1 40.0598 43.3901 17.5452
13248 1 43.3331 40.07 20.8483
13268 1 43.5061 43.3481 20.8746
13070 1 46.5182 43.2621 17.7026
13250 1 46.4912 40.1792 20.735
13252 1 49.7453 40.1134 20.7433
13272 1 49.7204 43.389 20.7557
13273 1 51.4152 41.7831 19.1631
13254 1 53.095 40.1714 20.9057
13274 1 52.9654 43.3698 20.8503
13056 1 56.1345 40.3069 17.8358
13082 1 33.7017 46.5424 17.6565
13282 1 33.7165 46.5056 20.9166
13088 1 43.2737 46.5221 17.6582
13286 1 40.138 46.532 20.9046
13090 1 46.6586 46.7064 17.4942
13289 1 45.0555 45.0311 19.2797
13290 1 46.5117 46.6844 20.9962
13291 1 48.1144 44.9667 19.2542
13094 1 52.9415 46.5126 17.5495
13294 1 52.8595 46.6157 20.9377
13295 1 54.6421 44.9671 19.342
13296 1 56.2844 46.7402 20.9226
13303 1 35.346 48.308 19.2554
13104 1 36.9962 49.8194 17.4559
13305 1 38.5099 48.3081 19.3888
13325 1 38.4526 51.3192 19.3314
13307 1 41.7073 48.3262 19.2554
13309 1 44.8815 48.2984 19.1215
13310 1 46.5231 49.6975 20.9385
13329 1 44.89 51.4144 19.2067
13312 1 49.7539 49.6623 21.0166
13313 1 51.4178 48.2338 19.1469
13314 1 52.9971 49.6789 20.9871
13322 1 33.7152 52.9915 20.8858
13341 1 32.1248 54.6111 19.1418
13342 1 33.779 56.2896 20.9122
13144 1 36.8185 56.2379 17.7399
13346 1 40.0978 56.1854 20.9055
13348 1 43.293 56.1802 20.7444
13152 1 49.7029 56.2642 17.6763
13402 1 33.7547 33.7062 24.095
13403 1 35.454 32.1362 22.4732
13421 1 32.1309 35.2624 22.3848
13423 1 35.4801 35.2015 22.4164
13406 1 40.1059 33.721 24.0926
13407 1 41.7466 32.1114 22.48
13410 1 46.5397 33.684 24.0485
13433 1 51.3227 35.3885 22.5208
13422 1 33.8055 36.9713 23.9941
13428 1 43.3772 36.9783 24.0369
13451 1 48.131 38.5615 22.5757
13453 1 51.395 38.4447 22.5293
13462 1 33.7828 43.4112 24.1043
13463 1 35.171 41.7186 22.329
13444 1 36.8498 40.2287 24.0496
13446 1 40.2567 40.0992 24.0989
13468 1 43.5537 43.4381 24.2196
13471 1 48.0295 41.7435 22.4888
13472 1 49.6645 43.3164 24.1978
13473 1 51.2773 41.7791 22.4316
13454 1 53.0976 40.2062 23.9083
13456 1 56.2294 40.1235 23.9068
13485 1 38.4736 44.9429 22.618
13486 1 40.2819 46.4419 24.1962
13487 1 41.7741 44.8414 22.5474
13488 1 43.3739 46.4696 24.2465
13491 1 48.0922 45.0162 22.5517
13493 1 51.2017 45.0034 22.579
13502 1 33.6849 49.7586 24.0699
13505 1 38.5686 48.215 22.5352
13507 1 41.6383 48.2849 22.5259
13508 1 43.2374 49.8709 24.1728
13509 1 44.9435 48.2267 22.6965
13531 1 48.0061 51.2681 22.5631
13533 1 51.4795 51.3833 22.5982
13528 1 43.1501 52.9167 24.1341
13532 1 49.6592 52.9674 24.0246
13555 1 54.6538 54.3942 22.5772
13542 1 33.7184 56.3681 24.052
13544 1 36.9121 56.4189 24.0643
13546 1 40.0925 56.3279 24.0889
13569 1 44.9141 57.7624 22.4569
13602 1 33.6245 33.7718 27.3051
13803 1 35.2614 32.1404 28.8626
13823 1 35.4119 35.275 28.8128
13605 1 38.3986 32.1549 25.7095
13627 1 41.7406 35.386 25.6454
13827 1 41.8653 35.311 29.0062
13610 1 46.6057 33.7279 27.366
13612 1 49.8077 33.6952 27.337
13631 1 48.2492 35.3449 25.625
13833 1 51.3741 35.4669 29.0223
13614 1 52.8976 33.7124 27.2677
13835 1 54.5909 35.378 29.006
13622 1 33.7082 36.9445 27.3574
13845 1 38.5636 38.5341 28.8363
13649 1 45.0131 38.588 25.7349
13632 1 49.7178 37.0302 27.3405
13853 1 51.3824 38.5797 29.0879
13655 1 54.5706 38.4768 25.5705
13857 1 57.7645 38.5728 28.9399
13861 1 32.1355 41.6967 28.8861
13665 1 38.6242 41.8462 25.6856
13865 1 38.7414 41.8821 28.9007
13667 1 41.8598 41.8073 25.7396
13671 1 48.1441 41.6219 25.7842
13673 1 51.3359 41.6706 25.7529
13654 1 52.967 40.1741 27.3582
13674 1 52.8877 43.4255 27.4589
13675 1 54.6278 41.8426 25.5763
13875 1 54.6114 41.6604 29.0424
13877 1 57.7298 41.6671 28.9763
13881 1 32.1762 44.8862 28.9275
13887 1 41.7154 44.8159 28.8472
13691 1 48.1205 45.1317 25.7768
13693 1 51.2634 45.1248 25.6706
13694 1 53.0762 46.5458 27.427
13695 1 54.6869 44.9814 25.5258
13897 1 57.7403 44.9749 28.9291
13723 1 35.352 51.4415 25.5769
13901 1 32.1456 48.2289 29.0115
13923 1 35.3847 51.3335 29.0124
13704 1 37.0401 49.7388 27.2918
13707 1 41.6954 48.2392 25.7975
13710 1 46.5248 49.5793 27.3034
13729 1 44.8933 51.3759 25.8196
13929 1 44.9364 51.354 28.9023
13712 1 49.589 49.6678 27.2568
13713 1 51.3996 48.1692 25.7006
13731 1 48.0325 51.4546 25.8123
13733 1 51.4265 51.2824 25.7107
13911 1 48.0892 47.9702 28.9628
13913 1 51.3427 48.1947 28.9466
13931 1 48.002 51.46 28.8739
13735 1 54.5515 51.4025 25.6037
13716 1 56.0882 49.7539 27.3399
13937 1 57.7302 51.4344 28.9846
13722 1 33.641 52.9256 27.2629
13743 1 35.3384 54.4448 25.5165
13745 1 38.5469 54.4452 25.6268
13749 1 44.8861 54.4837 25.7638
13753 1 51.3035 54.5714 25.6093
13734 1 52.9432 52.953 27.3229
13955 1 54.6354 54.4541 28.9955
13742 1 33.8009 56.2283 27.1951
13744 1 36.913 56.2033 27.1928
13965 1 38.519 57.6605 28.9419
13748 1 43.2494 56.0351 27.3574
13752 1 49.7913 56.1539 27.4164
13773 1 51.2517 57.7814 25.6857
13971 1 48.1674 57.7384 28.9813
13775 1 54.6154 57.769 25.7003
14002 1 33.6447 33.665 33.7941
14003 1 35.2633 32.2549 32.0038
14023 1 35.258 35.4228 32.1579
13804 1 37.0259 33.8087 30.456
14025 1 38.5487 35.3418 32.2278
13806 1 40.2079 33.6927 30.5135
14008 1 43.3417 33.7149 33.6801
13812 1 49.7722 33.8223 30.5445
14011 1 48.0468 32.1093 32.114
14012 1 49.7134 33.7422 33.7007
14035 1 54.502 35.3905 32.1863
14017 1 57.7408 32.1136 32.1534
13822 1 33.7321 36.9368 30.3297
14041 1 32.2568 38.542 32.0974
13824 1 36.9935 36.9919 30.4562
13828 1 43.4482 37.0735 30.5949
14047 1 41.6859 38.6017 32.2094
13830 1 46.6096 37.0648 30.491
14055 1 54.4606 38.5016 32.0442
14062 1 33.6508 43.3432 33.8473
13864 1 36.8975 43.3888 30.4471
13848 1 43.4543 40.154 30.5223
14054 1 52.9608 40.1672 33.7032
14074 1 53.107 43.3454 33.61
14056 1 56.062 40.1501 33.7594
14077 1 57.7592 41.7958 32.1452
14084 1 36.938 46.4948 33.6249
13886 1 40.1509 46.627 30.4861
13888 1 43.3355 46.6072 30.3938
14087 1 41.7633 44.7978 32.0738
14090 1 46.5138 46.5248 33.5538
14091 1 48.2703 44.9872 32.0805
14093 1 51.2342 44.9741 32.147
13894 1 53.0473 46.4114 30.4519
13896 1 56.0041 46.5363 30.4161
14103 1 35.2515 48.1684 31.9571
14123 1 35.2901 51.2942 32.0248
14104 1 36.9824 49.8006 33.73
14125 1 38.4555 51.2618 31.8416
13908 1 43.2308 49.7032 30.4505
14106 1 40.1408 49.7927 33.6376
13912 1 49.6242 49.8037 30.6042
14112 1 49.6481 49.7421 33.6339
14113 1 51.3763 48.1072 32.0556
14115 1 54.5144 48.1756 32.1495
14145 1 38.5434 54.6609 32.0275
13926 1 40.2228 52.9442 30.4133
13928 1 43.268 53.0303 30.468
14126 1 40.0507 52.8095 33.6889
14155 1 54.5226 54.5874 32.0647
14136 1 56.1397 52.8903 33.6871
14157 1 57.7158 54.446 32.0335
14142 1 33.5868 56.0575 33.7314
13950 1 46.3794 55.9952 30.5241
14152 1 49.7678 56.2813 33.7058
13954 1 52.8001 56.3305 30.504
13956 1 56.2434 56.3043 30.5861
14225 1 38.5425 35.3501 35.2319
14208 1 43.4353 33.7122 36.9253
14233 1 51.3564 35.3161 35.2407
14235 1 54.5542 35.3084 35.2255
14241 1 32.2521 38.5894 35.3989
14228 1 43.3952 36.8696 36.9591
14247 1 41.6478 38.6272 35.3031
14249 1 45.1123 38.4355 35.2401
14232 1 49.7927 36.9292 36.9232
14251 1 48.0716 38.4758 35.2296
14236 1 56.1991 37.0513 36.7445
14264 1 36.9822 43.2486 36.9821
14248 1 43.489 40.1749 36.7331
14266 1 39.942 43.246 36.9865
14268 1 43.4919 43.2942 36.874
14252 1 49.8498 40.0527 36.8178
14272 1 49.8337 43.4134 36.8257
14273 1 51.4108 41.7917 35.2966
14276 1 56.2032 43.4472 36.7881
14282 1 33.5386 46.5779 36.9274
14285 1 38.516 44.8502 35.2031
14287 1 41.7286 44.7987 35.1927
14294 1 52.831 46.4118 36.6495
14302 1 33.5243 49.7544 36.9516
14303 1 35.332 48.2283 35.3835
14327 1 41.8615 51.4089 35.2775
14312 1 49.7198 49.6958 36.7503
14333 1 51.4172 51.2881 35.2072
14349 1 44.8376 54.5171 35.224
14350 1 46.4303 56.0203 36.9473
14369 1 44.9624 57.7258 35.3275
14402 1 33.6577 33.7014 40.1981
14423 1 35.3544 35.4489 38.5945
14425 1 38.4728 35.3455 38.6301
14427 1 41.6778 35.2139 38.6231
14614 1 41.8422 35.2905 41.6723
14409 1 45.1322 32.1342 38.5473
14615 1 44.9806 35.3355 41.7621
14607 1 51.3525 32.1671 41.8084
14616 1 48.1395 35.4235 41.7759
14617 1 51.1988 35.3163 41.8332
14414 1 52.8393 33.764 40.0085
14415 1 54.6609 32.2 38.4675
14435 1 54.6937 35.2913 38.4197
14608 1 54.5857 32.2475 41.8857
14618 1 54.6294 35.2537 41.8566
14619 1 57.77 35.289 41.8782
14428 1 43.4188 36.8644 39.9543
14447 1 41.7445 38.6769 38.4631
14449 1 45.0755 38.554 38.4965
14451 1 48.1659 38.5245 38.5875
14627 1 51.2415 38.5216 41.6816
14434 1 52.9177 36.8578 40.0502
14628 1 54.5017 38.5208 41.8689
14436 1 56.21 36.9631 40.189
14442 1 33.6686 40.1034 40.0328
14632 1 35.2499 41.7628 41.6682
14467 1 41.7516 41.6301 38.4659
14468 1 43.4119 43.3179 40.1414
14469 1 45.0008 41.5912 38.5115
14470 1 46.5008 43.3986 40.0628
14636 1 48.1957 41.7859 41.6637
14475 1 54.4819 41.7733 38.3929
14456 1 56.1455 40.1579 40.2479
14482 1 33.6783 46.5712 40.1502
14483 1 35.2498 44.8354 38.5155
14641 1 32.1414 44.8221 41.7984
14487 1 41.7234 44.8853 38.5184
14488 1 43.251 46.6763 40.066
14645 1 44.9311 44.9357 41.775
14491 1 48.1553 45.0098 38.3756
14493 1 51.5215 44.8463 38.5915
14647 1 51.4165 44.8661 41.5994
14496 1 56.1831 46.4305 40.0893
14505 1 38.4914 48.2333 38.5587
14653 1 38.5265 48.1798 41.7335
14663 1 38.6895 51.2489 41.807
14664 1 41.6754 51.2782 41.7918
14512 1 49.6214 49.7489 40.0159
14531 1 47.9461 51.3936 38.3959
14533 1 51.3918 51.248 38.3951
14656 1 48.1272 48.1076 41.6663
14657 1 51.4041 48.1245 41.57
14667 1 51.3305 51.2536 41.6298
14514 1 53.1191 49.7272 39.9359
14515 1 54.5965 47.9862 38.2746
14658 1 54.5814 48.1874 41.7763
14516 1 56.141 49.7741 40.0303
14524 1 36.7899 52.8907 40.1365
14673 1 38.568 54.49 41.7734
14528 1 43.3361 52.8599 39.9674
14553 1 51.2428 54.6437 38.4597
14555 1 54.5114 54.6648 38.5351
14542 1 33.6988 56.0177 40.1569
14556 1 56.2076 56.2746 40.1869
14683 1 38.4756 57.6988 41.7593
14548 1 43.2251 56.1867 40.0093
14552 1 49.5994 56.1992 40.1634
14688 1 54.2933 57.7568 41.7012
14804 1 36.9252 33.7458 46.5445
14703 1 40.097 33.7947 43.3131
14704 1 43.3462 33.6796 43.486
14808 1 43.3245 33.6942 46.4561
14827 1 41.6233 35.3991 45.01
14812 1 49.663 33.6949 46.5664
14813 1 51.3497 32.1515 44.8614
14831 1 48.0812 35.237 44.7348
14833 1 51.1853 35.1465 44.7739
14816 1 56.1318 33.7924 46.5214
14822 1 33.7014 36.9687 46.6032
14843 1 35.2743 38.6256 44.8989
14845 1 38.5015 38.4948 44.9801
14832 1 49.6622 36.8694 46.4515
14853 1 51.3574 38.6137 44.9206
14717 1 52.9544 36.8237 43.4175
14834 1 52.9891 36.7748 46.4368
14862 1 33.5758 43.3942 46.5401
14724 1 43.361 40.1343 43.3503
14866 1 40.1792 43.3261 46.4563
14868 1 43.2545 43.3857 46.3937
14850 1 46.442 39.8426 46.3654
14870 1 46.5583 43.4902 46.5968
14871 1 48.0753 41.7247 44.9301
14872 1 49.6919 43.3398 46.5457
14874 1 53.0299 43.1981 46.4942
14876 1 56.1723 43.3733 46.6353
14877 1 57.7585 41.645 45.064
14883 1 35.245 44.9451 44.7815
14884 1 36.8815 46.4673 46.5542
14743 1 40.2221 46.4626 43.1024
14887 1 41.6734 45.076 44.9559
14745 1 46.5381 46.4993 43.311
14890 1 46.4651 46.5576 46.6053
14891 1 48.1295 44.963 44.8932
14893 1 51.3773 45.0477 45.0386
14895 1 54.5247 45.0449 44.9837
14751 1 33.6196 49.7482 43.3035
14902 1 33.5805 49.726 46.536
14903 1 35.2218 47.9669 44.8264
14923 1 35.245 51.4914 44.9853
14752 1 36.6949 49.7816 43.226
14905 1 38.5334 48.0676 44.8113
14908 1 43.3387 49.7291 46.5172
14756 1 49.7111 49.7364 43.4076
14933 1 51.3366 51.3191 45.0878
14757 1 52.8179 49.681 43.4674
14917 1 57.7784 48.192 44.8911
14922 1 33.5483 53.0439 46.5065
14762 1 36.6944 52.9068 43.1731
14945 1 38.4476 54.3969 44.868
14926 1 40.1753 53.0181 46.5253
14928 1 43.3612 53.0401 46.4487
14767 1 52.9269 52.9148 43.3108
14934 1 52.9092 53.0167 46.7061
14768 1 56.2652 52.8503 43.3229
14936 1 56.1656 52.9477 46.5548
14771 1 33.645 56.0634 43.2714
14942 1 33.6827 55.9832 46.5224
14944 1 36.8535 56.0068 46.5653
14946 1 40.1181 56.0959 46.5742
14952 1 49.7094 56.1983 46.5306
14975 1 54.4308 57.7416 44.9611
14956 1 56.0658 56.0729 46.6422
15025 1 38.6877 35.3232 48.1263
15007 1 41.7119 32.1436 48.232
15008 1 43.2356 33.8522 49.8531
15013 1 51.241 32.1267 48.2602
15031 1 48.1629 35.2905 48.3198
15033 1 51.2624 35.2534 48.2716
15014 1 53.1026 33.5853 49.8195
15022 1 33.6496 37.0692 49.6509
15028 1 43.1901 36.9109 49.593
15034 1 52.9446 36.8217 49.8231
15042 1 33.5855 40.0958 49.7224
15063 1 35.3627 41.6964 48.0985
15065 1 38.408 41.7462 48.1387
15046 1 40.1613 40.1176 49.7824
15067 1 41.7796 41.703 48.1005
15050 1 46.3019 40.0313 49.7982
15069 1 44.8363 41.6517 48.0394
15070 1 46.5346 43.4511 49.7136
15052 1 49.772 40.0746 49.7176
15071 1 48.0544 41.551 48.049
15072 1 49.5812 43.4282 49.6731
15054 1 53.0279 40.2157 49.6714
15074 1 53.1604 43.3788 49.5922
15056 1 56.2532 40.2457 49.6116
15083 1 35.4234 44.7761 48.225
15086 1 40.0749 46.5084 49.6998
15088 1 43.21 46.5069 49.5926
15089 1 44.7689 44.953 48.0839
15093 1 51.329 45.0671 48.0841
15094 1 53.0006 46.5768 49.7805
15096 1 56.1896 46.5238 49.5775
15102 1 33.6883 49.7517 49.7581
15123 1 35.2953 51.4565 48.1365
15125 1 38.424 51.4294 48.0695
15106 1 39.9626 49.7233 49.8252
15110 1 46.3462 49.8094 49.7333
15111 1 48.31 48.2093 48.1655
15128 1 43.4302 53.0095 49.706
15132 1 49.825 52.9601 49.7581
15151 1 48.0848 54.5197 48.1438
15144 1 36.9524 56.1097 49.5098
15150 1 46.3954 55.9927 49.7807
15173 1 51.4839 57.777 48.0635
15203 1 35.3843 32.1301 51.3674
15221 1 32.169 35.3805 51.4105
15421 1 32.1453 35.4118 54.5221
15206 1 40.2008 33.7331 52.9057
15210 1 46.4615 33.7644 52.9886
15211 1 48.178 32.1039 51.3672
15213 1 51.2119 32.1897 51.3733
15235 1 54.6954 35.2693 51.4329
15243 1 35.2916 38.6455 51.4454
15441 1 32.1759 38.524 54.4747
15224 1 37.0494 36.9599 52.9187
15247 1 41.687 38.4112 51.5027
15249 1 44.7514 38.335 51.4879
15451 1 47.9659 38.3818 54.5777
15255 1 54.6435 38.5354 51.351
15455 1 54.6377 38.5141 54.5847
15263 1 35.3592 41.6577 51.3618
15463 1 35.2971 41.5339 54.3922
15264 1 36.9417 43.3421 53.0383
15467 1 41.5847 41.7118 54.4362
15273 1 51.3737 41.8172 51.308
15473 1 51.3206 41.7471 54.5831
15274 1 53.084 43.2946 53.0466
15256 1 56.2232 40.2079 53.0686
15285 1 38.5114 44.8586 51.3333
15287 1 41.6654 44.8844 51.4309
15289 1 44.754 44.9719 51.3983
15489 1 44.8485 45.0683 54.5541
15292 1 49.752 46.611 52.8858
15293 1 51.382 44.9406 51.2966
15493 1 51.5024 45.1066 54.5757
15295 1 54.7054 45.0171 51.5312
15297 1 57.7012 44.9747 51.4418
15503 1 35.3934 48.2444 54.4389
15505 1 38.4382 48.1902 54.4944
15525 1 38.4444 51.385 54.6318
15307 1 41.6845 48.0258 51.4596
15308 1 43.2957 49.8497 52.9137
15507 1 41.6779 48.133 54.5523
15309 1 44.7847 48.0219 51.3871
15509 1 44.9097 48.1277 54.6071
15311 1 48.2304 48.2363 51.2137
15333 1 51.4548 51.3703 51.4459
15511 1 48.0948 48.2567 54.6298
15533 1 51.405 51.3972 54.4965
15335 1 54.4328 51.4907 51.4271
15515 1 54.5378 47.9989 54.5505
15535 1 54.6022 51.4497 54.6543
15316 1 56.1341 49.7886 53.0531
15317 1 57.7669 48.1306 51.4863
15341 1 32.1517 54.5425 51.342
15343 1 35.3294 54.5802 51.3354
15543 1 35.367 54.5149 54.5161
15545 1 38.4193 54.5056 54.4849
15328 1 43.2784 52.9783 52.9726
15330 1 46.5423 52.8193 52.7775
15549 1 45.0466 54.5759 54.5244
15551 1 48.2103 54.5304 54.5226
15336 1 56.2362 53.0531 53.1028
15565 1 38.5567 57.6368 54.4399
15348 1 43.2914 56.054 52.9459
15567 1 41.6147 57.7022 54.5345
15406 1 40.1085 33.7796 56.0547
15607 1 41.7381 32.1078 57.7632
15627 1 41.7594 35.3679 57.7318
15609 1 45.081 32.1584 57.6796
15412 1 49.7085 33.634 56.2193
15424 1 36.8661 36.907 56.1983
15426 1 40.1054 36.8422 55.9519
15647 1 41.7052 38.4367 57.6366
15655 1 54.599 38.5594 57.7479
15462 1 33.7205 43.3437 56.0303
15444 1 36.8335 40.0698 56.2309
15665 1 38.6 41.6761 57.7406
15448 1 43.2953 39.9814 56.0047
15466 1 40.0988 43.5201 55.9422
15468 1 43.2121 43.4392 56.0589
15667 1 41.6076 41.7112 57.6782
15452 1 49.7026 39.9698 56.1542
15673 1 51.3589 41.752 57.7386
15476 1 56.1792 43.5246 56.175
15484 1 36.9674 46.4416 56.1348
15486 1 40.0796 46.539 56.1693
15691 1 48.0571 45.1245 57.7722
15693 1 51.4619 45.0533 57.6978
15703 1 35.2949 48.1274 57.7705
15504 1 36.8583 49.8053 56.3102
15725 1 38.5762 51.4214 57.731
15709 1 44.9802 48.1634 57.617
15514 1 52.9914 49.7304 56.2228
15717 1 57.7404 48.2154 57.7235
15737 1 57.7231 51.3922 57.6988
15522 1 33.6373 52.9943 56.12
15544 1 36.9031 56.1753 56.1854
15546 1 40.0938 56.0443 56.2776
15550 1 46.6642 56.1004 56.2526
15554 1 52.9959 56.1924 56.1072
