ITEM: TIMESTEP
0
ITEM: NUMBER OF ATOMS
4085
ITEM: BOX BOUNDS pp pp pp
0.0000000000000000e+00 6.3600000000000001e+01
0.0000000000000000e+00 6.3600000000000001e+01
0.0000000000000000e+00 6.3600000000000001e+01
ITEM: ATOMS id type x y z
9361 2 31.7784 25.5548 19.1043
5211 2 15.9505 31.6366 19.1638
1400 2 30.2135 30.186 20.6341
9341 2 31.6917 22.2306 19.1452
9321 2 31.6571 19.0681 19.1374
9301 2 31.7436 15.9154 19.1215
9281 2 31.7938 12.6893 19.1091
5207 2 9.53297 31.782 19.1288
5019 2 28.6503 31.7477 15.9265
4819 2 28.6574 31.7488 12.6253
12401 2 31.7825 31.7363 6.45892
4817 2 25.4405 31.702 12.7432
4813 2 19.0817 31.6666 12.7544
4811 2 15.9316 31.6332 12.7642
4617 2 25.5277 31.7914 9.63403
4615 2 22.1606 31.7053 9.63347
4609 2 12.763 31.7692 9.40032
1200 2 30.2867 30.1908 17.5482
4419 2 28.7158 31.788 6.52039
1398 2 27.0862 30.2013 20.6716
1397 2 25.4216 28.5887 19.0673
1396 2 23.7344 30.2314 20.7023
8561 2 31.6996 25.4636 6.42924
8521 2 31.7946 19.1169 6.40618
8501 2 31.7977 15.847 6.37215
1176 2 23.7498 26.977 17.4711
1156 2 23.7547 23.734 17.5644
1196 2 23.7568 30.221 17.4273
1395 2 22.1597 28.5922 19.0249
446 2 8.0405 7.94942 7.8494
454 2 20.6314 7.94174 7.95545
458 2 27.068 7.99926 7.98142
460 2 30.3153 7.96339 7.9538
1394 2 20.592 30.204 20.682
466 2 7.97664 11.1561 7.98927
468 2 11.0842 11.0853 8.02187
469 2 12.7041 9.4565 6.40735
487 2 9.53438 12.7928 6.36757
489 2 12.7423 12.7948 6.4245
471 2 15.8878 9.45839 6.39663
472 2 17.4792 11.1718 7.94503
491 2 15.7743 12.7756 6.38164
474 2 20.6966 11.1552 7.89931
477 2 25.3771 9.57735 6.38052
478 2 27.0026 11.1748 7.93916
486 2 7.91027 14.375 8.03162
506 2 7.90085 17.473 7.94357
508 2 11.2232 17.413 7.95509
492 2 17.4001 14.4028 7.97435
512 2 17.4262 17.502 7.91094
494 2 20.6605 14.3024 7.9406
514 2 20.6332 17.5834 7.97336
496 2 23.8474 14.2257 7.96105
498 2 27.0189 14.2829 7.93272
516 2 23.7995 17.5997 7.94618
500 2 30.1021 14.3293 7.95431
520 2 30.0843 17.4993 7.98515
526 2 7.93143 20.7683 7.95423
527 2 9.64031 19.1097 6.36066
551 2 15.8684 22.2297 6.43651
536 2 23.7468 20.6903 7.96569
540 2 30.1562 20.7108 8.05075
559 2 28.539 22.3429 6.44816
566 2 7.91011 27.0028 7.88796
548 2 11.1679 23.7664 7.9715
568 2 11.1288 27.0318 7.9556
570 2 14.3934 27.0738 7.95888
572 2 17.4985 27.0177 7.99854
554 2 20.5979 23.7608 8.03292
575 2 22.2432 25.4134 6.48901
577 2 25.4662 25.3755 6.44115
578 2 27.1012 27.0787 8.00432
589 2 12.7125 28.6669 6.40116
592 2 17.4837 30.179 8.06931
593 2 19.0918 28.571 6.42484
595 2 22.2157 28.5973 6.46467
596 2 23.8827 30.2113 8.00828
597 2 25.4159 28.5738 6.40503
598 2 27.1126 30.1588 8.07877
9121 2 31.6692 19.1201 15.956
8941 2 31.7568 22.2609 12.7396
8921 2 31.6885 19.1015 12.7308
647 2 9.64596 6.38211 9.48781
650 2 14.1935 7.89782 11.0553
654 2 20.6384 7.94158 11.1198
658 2 27.1361 7.9269 11.1968
660 2 30.331 7.88963 11.2396
1389 2 12.8338 28.6324 19.1445
665 2 6.36269 9.50631 9.55808
668 2 11.1039 11.1371 11.0482
670 2 14.2617 11.2201 11.0799
671 2 15.869 9.47906 9.47343
672 2 17.4737 11.1464 11.1272
674 2 20.6782 11.1209 11.1391
675 2 22.369 9.51382 9.50725
693 2 19.0446 12.7773 9.5682
676 2 23.8989 11.2106 11.1174
679 2 28.7157 9.61089 9.60992
699 2 28.6478 12.642 9.61716
688 2 11.2052 14.3046 11.0212
708 2 11.2457 17.4854 11.1077
690 2 14.3412 14.2919 11.0516
694 2 20.7341 14.3484 11.1613
715 2 22.2588 16.0148 9.62548
696 2 23.8577 14.3103 11.233
698 2 26.9809 14.2976 11.208
717 2 25.4122 15.9749 9.56308
718 2 26.9311 17.5075 11.2487
700 2 30.1986 14.3154 11.2228
725 2 6.39269 19.1289 9.57719
727 2 9.59134 19.1495 9.57467
729 2 12.8252 19.1182 9.50887
731 2 15.8929 19.0956 9.55205
751 2 15.9605 22.1738 9.49227
733 2 19.0555 19.1514 9.59468
734 2 20.7414 20.7293 11.1967
737 2 25.3898 19.1645 9.63741
757 2 25.3813 22.2573 9.60584
739 2 28.5038 19.1389 9.6177
746 2 8.00166 23.8036 11.1278
765 2 6.36073 25.4204 9.50539
767 2 9.52015 25.4058 9.5514
768 2 11.1648 27.0509 11.1671
769 2 12.7482 25.3722 9.55169
750 2 14.3186 23.7514 11.1274
752 2 17.6479 23.8114 11.1367
770 2 14.3578 27.1176 11.1613
771 2 15.9673 25.3677 9.5295
754 2 20.7056 23.8069 11.212
774 2 20.6483 26.9407 11.2238
775 2 22.3447 25.4095 9.6038
758 2 26.9898 23.8598 11.2099
777 2 25.3931 25.43 9.61456
760 2 30.2052 23.896 11.1195
779 2 28.6123 25.4591 9.52836
780 2 30.1959 27.0754 11.1825
787 2 9.46661 28.697 9.53187
788 2 11.2272 30.2066 11.1168
795 2 22.21 28.5389 9.58926
796 2 23.8451 30.0592 11.2463
1186 2 7.96149 30.1641 17.5031
846 2 7.95477 8.02836 14.272
847 2 9.62533 6.44056 12.6561
1047 2 9.57678 6.38261 15.874
850 2 14.2691 7.89903 14.3107
852 2 17.5441 7.97747 14.3526
1055 2 22.2994 6.36356 15.8235
858 2 27.0743 7.92034 14.3523
860 2 30.2704 7.90332 14.2837
1380 2 30.1901 27.1125 20.7442
1379 2 28.5469 25.4354 19.0486
1360 2 30.1523 23.9097 20.7612
866 2 7.96397 11.1228 14.3865
868 2 11.071 11.1617 14.2984
869 2 12.631 9.50071 12.6947
887 2 9.50743 12.7598 12.657
1069 2 12.6976 9.54429 15.9103
1089 2 12.767 12.857 15.9235
870 2 14.325 11.1978 14.2674
871 2 15.9104 9.50788 12.6684
872 2 17.4979 11.1783 14.3292
1091 2 15.9028 12.8057 15.9404
875 2 22.2925 9.48293 12.7741
893 2 19.0602 12.8088 12.7666
1073 2 19.1632 9.66 15.9226
1075 2 22.2821 9.5391 15.8738
1095 2 22.2377 12.8087 15.9783
876 2 23.9002 11.209 14.3099
877 2 25.4494 9.50971 12.7021
878 2 27.056 11.165 14.2852
1097 2 25.5012 12.872 15.9754
880 2 30.2528 11.1802 14.2528
1079 2 28.6549 9.62141 15.985
1099 2 28.57 12.7566 15.9842
886 2 8.01638 14.31 14.3864
905 2 6.42534 15.8668 12.6386
906 2 8.01642 17.5963 14.3493
907 2 9.58392 15.9171 12.6871
908 2 11.2141 17.5939 14.3734
909 2 12.8333 15.9204 12.7852
1109 2 12.8166 15.9414 15.9562
911 2 15.9346 15.9195 12.7201
912 2 17.5318 17.531 14.3972
894 2 20.7084 14.4281 14.3631
913 2 19.0492 15.9642 12.6791
914 2 20.7187 17.5627 14.3326
896 2 23.8514 14.4715 14.3208
900 2 30.2473 14.315 14.3552
919 2 28.5326 15.9268 12.8412
920 2 30.126 17.4366 14.4556
926 2 7.99028 20.6727 14.4389
945 2 6.40015 22.2013 12.7545
927 2 9.61281 19.1723 12.6858
947 2 9.63012 22.2592 12.7769
949 2 12.686 22.1321 12.7699
931 2 15.8818 19.0506 12.6785
932 2 17.6332 20.6158 14.3497
951 2 15.9519 22.1501 12.7349
1151 2 15.9895 22.2081 15.9289
934 2 20.7077 20.7281 14.3179
1135 2 22.3359 19.1474 15.9459
938 2 26.8889 20.561 14.3612
1157 2 25.3247 22.1531 15.9525
939 2 28.5911 19.0898 12.7676
959 2 28.5943 22.1724 12.7232
1159 2 28.5247 22.1755 15.9762
1160 2 30.2025 23.8557 17.4479
1378 2 27.0481 27.0124 20.754
965 2 6.40167 25.5047 12.7547
969 2 12.6629 25.3672 12.7773
1167 2 9.58516 25.3731 15.8335
1169 2 12.6872 25.4216 15.9425
950 2 14.3067 23.7683 14.3762
970 2 14.3854 27.1 14.3214
971 2 16.0032 25.4136 12.7466
972 2 17.5213 27.0983 14.3735
1171 2 15.9722 25.434 15.9862
974 2 20.6998 27.0299 14.3115
1173 2 19.1184 25.3691 15.9542
1175 2 22.2101 25.3263 15.8496
958 2 26.9266 23.8276 14.2565
1177 2 25.3824 25.4073 15.8596
960 2 30.195 23.9282 14.3168
1179 2 28.5458 25.518 15.9046
1377 2 25.4416 25.3767 19.116
986 2 7.91803 30.198 14.3197
987 2 9.49247 28.5612 12.7144
988 2 11.26 30.2257 14.2898
1187 2 9.61592 28.5691 15.8776
1189 2 12.8127 28.6431 16.002
993 2 19.057 28.6725 12.735
998 2 27.0134 30.1001 14.2762
1197 2 25.4046 28.5339 15.853
1000 2 30.2619 30.1298 14.2719
1199 2 28.6074 28.5259 15.9192
1046 2 7.94694 8.03018 17.4359
1246 2 7.89907 7.9166 20.7343
1247 2 9.58741 6.3876 19.0514
1249 2 12.7472 6.36751 19.0535
1050 2 14.3649 8.02648 17.5212
1052 2 17.4695 7.99376 17.5151
1250 2 14.4264 7.96555 20.602
1054 2 20.6904 7.94371 17.4778
1253 2 19.1388 6.41915 19.1739
1255 2 22.3074 6.38093 19.1359
1058 2 27.0187 7.98768 17.4982
1256 2 23.8982 7.98852 20.8688
1257 2 25.4461 6.39273 19.142
1060 2 30.2577 8.00761 17.5779
1259 2 28.6094 6.38172 19.1213
1260 2 30.2187 8.05475 20.8051
1068 2 11.1235 11.1538 17.4584
1267 2 9.54703 9.59131 19.1097
1287 2 9.60514 12.7261 19.109
1289 2 12.7462 12.833 19.029
1270 2 14.414 11.2005 20.5842
1272 2 17.5193 11.266 20.6345
1273 2 19.1061 9.58724 19.104
1274 2 20.6813 11.1544 20.7206
1275 2 22.3146 9.56038 19.1238
1295 2 22.3024 12.7942 19.0423
1076 2 23.9322 11.153 17.4974
1277 2 25.4987 9.5863 19.19
1278 2 27.1371 11.1982 20.8046
1297 2 25.5403 12.8225 19.1114
1280 2 30.1885 11.126 20.7933
1086 2 8.04708 14.3218 17.4659
1106 2 8.09385 17.5756 17.4373
1286 2 7.96379 14.3149 20.6529
1305 2 6.39588 15.9612 19.024
1306 2 8.03349 17.5531 20.58
1092 2 17.6097 14.3492 17.4855
1112 2 17.5521 17.4902 17.4101
1290 2 14.4009 14.3944 20.6948
1310 2 14.3364 17.4905 20.6835
1311 2 15.9385 15.931 19.0434
1312 2 17.5374 17.531 20.7203
1294 2 20.6779 14.4119 20.5827
1314 2 20.757 17.5688 20.6141
1116 2 23.8907 17.5022 17.5394
1296 2 23.9412 14.4502 20.6653
1318 2 26.907 17.5154 20.7174
1100 2 30.1767 14.3318 17.4949
1300 2 30.1217 14.2616 20.7922
1319 2 28.4864 15.9073 19.0791
1320 2 30.0426 17.4655 20.7895
1327 2 9.69927 19.1847 19.0285
1347 2 9.61856 22.2318 19.0651
1130 2 14.2257 20.634 17.4874
1331 2 15.9398 19.1359 19.078
1351 2 15.9986 22.2172 19.1273
1333 2 19.1494 19.1504 18.9996
1334 2 20.8075 20.6337 20.6888
1353 2 19.0897 22.2436 19.0275
1338 2 26.8713 20.5677 20.6945
1359 2 28.496 22.2023 19.0927
1356 2 23.8276 23.7273 20.7114
1146 2 7.969 23.7833 17.4573
1166 2 7.97209 26.9839 17.492
1366 2 8.05469 27.0135 20.6354
1168 2 11.1307 26.9816 17.6277
1150 2 14.2283 23.7886 17.5668
1350 2 14.3346 23.8612 20.689
1371 2 15.9347 25.4782 19.0796
1372 2 17.4637 27.14 20.6808
1354 2 20.7843 23.8214 20.6548
1373 2 19.0653 25.419 19.007
1374 2 20.6557 27.042 20.6839
2700 2 28.6168 28.6106 41.2492
10661 2 31.725 19.1374 41.2975
2600 2 30.2742 30.1623 39.686
10521 2 31.755 19.1155 38.1245
10501 2 31.7478 15.8812 38.1441
2599 2 28.5984 28.5632 38.0012
1446 2 7.88689 7.94776 23.8068
1448 2 11.1411 7.90251 23.8611
1450 2 14.3943 7.90202 23.8498
1452 2 17.6542 7.9542 23.81
1456 2 23.9355 7.92779 23.8894
1460 2 30.2679 8.04235 23.8882
1467 2 9.52692 9.61941 22.2191
1468 2 11.172 11.2363 23.9128
1469 2 12.7287 9.57168 22.1936
1487 2 9.5766 12.7213 22.2238
1489 2 12.7639 12.831 22.2272
1470 2 14.439 11.2856 23.8667
1471 2 16.0126 9.55132 22.2199
1472 2 17.5757 11.1662 23.8611
1493 2 19.117 12.8569 22.3318
1495 2 22.2937 12.7448 22.2714
1476 2 23.9793 11.0738 23.7928
2598 2 26.9466 30.2325 39.6811
1486 2 8.01578 14.3401 23.9014
1505 2 6.37994 15.9499 22.3346
1488 2 11.2343 14.3985 23.9714
1507 2 9.65208 15.9561 22.2254
1508 2 11.2655 17.4638 23.9059
1510 2 14.45 17.4428 23.8617
1513 2 19.0838 15.9434 22.3494
1515 2 22.3054 16.037 22.2822
1496 2 23.9096 14.3596 23.8176
1520 2 30.0683 17.4466 23.8996
2597 2 25.4111 28.589 38.0002
1525 2 6.43255 19.1342 22.3084
1526 2 7.98918 20.8145 23.8868
1527 2 9.61741 19.1358 22.1965
1528 2 11.1638 20.7221 23.8887
1529 2 12.8089 19.154 22.2215
1547 2 9.59945 22.3343 22.1505
1549 2 12.7775 22.2895 22.2684
1532 2 17.4546 20.6462 23.8499
1553 2 19.0772 22.2026 22.2352
1540 2 30.0824 20.5918 23.9869
1559 2 28.5024 22.181 22.2862
2698 2 22.2576 28.6692 41.3235
1546 2 7.96132 23.8612 23.945
1567 2 9.62647 25.4321 22.2751
1569 2 12.7368 25.4648 22.3003
1552 2 17.4375 23.8176 23.9032
1572 2 17.4068 27.0125 23.8419
1554 2 20.6843 23.7582 23.9057
1573 2 19.0414 25.3918 22.2367
1574 2 20.6905 27.0239 23.8294
1556 2 23.826 23.7369 23.8202
1558 2 26.9987 23.8038 23.915
1576 2 23.8009 26.9647 23.8378
1578 2 27.0603 26.9321 23.8873
1560 2 30.1008 23.8878 23.9529
1580 2 30.1986 27.0126 23.8396
2697 2 19.162 28.5339 41.3822
1585 2 6.37003 28.5697 22.2882
1586 2 7.91791 30.2624 23.8984
1587 2 9.6268 28.6234 22.2746
1589 2 12.7588 28.5665 22.2284
1590 2 14.4008 30.1673 23.8323
1597 2 25.3905 28.6369 22.3072
1600 2 30.1956 30.1862 23.8572
2595 2 22.2995 28.676 38.0207
10181 2 31.7135 28.5551 31.7153
10121 2 31.78 19.0773 31.9087
10101 2 31.7265 15.857 31.9165
10061 2 31.7864 9.5435 31.7809
10041 2 31.7946 6.36287 31.709
1648 2 11.1963 7.91282 27.0989
1650 2 14.3432 7.87871 27.075
1654 2 20.7258 7.85576 27.0772
1656 2 23.9025 7.90198 27.0155
1658 2 27.0352 7.99643 27.0416
1659 2 28.6054 6.44163 25.4425
2696 2 15.9133 28.5367 41.3325
2592 2 17.5433 30.0887 39.6714
1685 2 6.3814 12.6718 25.3743
1865 2 6.45966 9.52582 28.5892
1885 2 6.43714 12.7759 28.6591
1667 2 9.47402 9.5778 25.4773
1668 2 11.1676 11.218 27.0315
1669 2 12.7915 9.57527 25.4527
1869 2 12.8077 9.58875 28.6844
1887 2 9.5774 12.8192 28.6039
1889 2 12.8415 12.8874 28.6036
1670 2 14.4347 11.287 27.0202
1671 2 16.049 9.54663 25.508
1871 2 16.0361 9.61557 28.6894
1675 2 22.2563 9.56466 25.4439
1693 2 19.1051 12.779 25.4516
1695 2 22.2538 12.6673 25.4283
1873 2 19.0731 9.52809 28.6409
1875 2 22.2694 9.5611 28.6045
1893 2 19.0308 12.6856 28.5435
1678 2 27.0819 11.1124 27.0745
1697 2 25.5532 12.7271 25.4255
1699 2 28.6738 12.7311 25.4181
1879 2 28.7777 9.54211 28.6419
1686 2 8.06879 14.4202 26.9606
1905 2 6.52332 15.9226 28.7104
1712 2 17.4441 17.4221 26.93
1694 2 20.6954 14.4225 27.0165
1696 2 23.8295 14.3238 27.0416
1716 2 23.8429 17.5279 26.9207
1717 2 25.5271 15.9383 25.3288
1718 2 27.0413 17.5628 26.9096
1917 2 25.5152 15.9292 28.5914
1720 2 30.1541 17.501 26.9755
1919 2 28.6114 15.8326 28.6211
2590 2 14.2934 30.1567 39.7273
1725 2 6.45631 19.1232 25.4617
1925 2 6.5074 19.135 28.612
1727 2 9.57811 19.0653 25.5291
1728 2 11.2597 20.7387 27.1036
1729 2 12.8829 19.0853 25.5165
1749 2 12.8247 22.2972 25.4054
1927 2 9.66046 19.0671 28.6443
1947 2 9.63772 22.3824 28.6549
1951 2 15.8966 22.2274 28.6142
1733 2 19.1561 19.0584 25.376
1735 2 22.2444 19.1506 25.3374
1933 2 19.1253 19.1237 28.4476
1935 2 22.2778 19.1939 28.5054
1757 2 25.421 22.1566 25.5191
1937 2 25.4341 19.2475 28.5976
1939 2 28.5091 19.1743 28.6322
2694 2 9.50035 28.5997 41.408
1766 2 7.98082 26.9998 26.9735
1965 2 6.5368 25.3705 28.6232
1768 2 11.131 26.9725 27.0612
1769 2 12.7746 25.4211 25.3929
1969 2 12.7756 25.3883 28.6656
1750 2 14.379 23.8235 27.015
1752 2 17.5327 23.7983 26.938
1971 2 15.9222 25.4673 28.68
1774 2 20.6823 27.052 27.0376
1775 2 22.2754 25.3382 25.5559
1973 2 19.0431 25.4111 28.6198
1975 2 22.3764 25.376 28.6411
1777 2 25.4159 25.3454 25.6066
1778 2 27.1044 27.0045 27.1746
1977 2 25.4608 25.3884 28.7486
2588 2 11.1637 30.2036 39.7572
1787 2 9.55947 28.6332 25.3929
1788 2 11.1237 30.3095 27.0046
1789 2 12.7483 28.5409 25.3829
1987 2 9.53493 28.6594 28.5925
1790 2 14.3059 30.1403 27.0358
1792 2 17.4774 30.1138 27.0252
1793 2 19.0541 28.6327 25.3699
1794 2 20.7104 30.1563 27.0343
1796 2 23.8521 30.1608 27.1147
1797 2 25.4312 28.6006 25.4595
1798 2 27.0371 30.2022 27.1205
1799 2 28.6698 28.6271 25.5504
2047 2 9.5862 6.37888 31.762
2049 2 12.7162 6.41617 31.8137
1850 2 14.3716 8.00009 30.2865
2051 2 16.0392 6.39191 31.8473
2054 2 20.708 7.9242 33.4083
1856 2 23.8554 7.98018 30.2378
1858 2 27.0807 7.96962 30.2575
2056 2 23.8263 7.96709 33.392
2060 2 30.2134 7.95798 33.3987
1866 2 7.96956 11.11 30.2689
2066 2 7.92146 11.2064 33.418
1868 2 11.1724 11.1187 30.2163
2067 2 9.59635 9.45705 31.8596
2087 2 9.5895 12.7636 31.8099
2089 2 12.8256 12.7378 31.7605
2070 2 14.4652 11.1178 33.3597
1874 2 20.6863 11.1569 30.2432
2073 2 18.9957 9.51005 31.8029
2074 2 20.5996 11.1883 33.391
2095 2 22.2866 12.7403 31.8544
1876 2 23.9454 11.1417 30.2243
1878 2 27.0612 11.1615 30.2416
2078 2 27.034 11.1848 33.3354
2080 2 30.2018 11.1365 33.3384
2086 2 7.93731 14.3422 33.3946
2106 2 7.92813 17.545 33.3345
1888 2 11.1623 14.4849 30.1546
2088 2 11.1746 14.3886 33.4218
2108 2 11.2401 17.5729 33.379
2109 2 12.819 15.991 31.7413
1892 2 17.4625 14.2865 30.1518
1910 2 14.3238 17.5693 30.0361
1912 2 17.4731 17.4868 30.0611
2090 2 14.3889 14.2945 33.4099
2111 2 15.9301 15.9422 31.8086
1894 2 20.6938 14.3362 30.1512
1914 2 20.6973 17.4642 30.147
2113 2 19.066 15.872 31.8627
2114 2 20.7476 17.535 33.4466
1896 2 23.8784 14.3108 30.1919
1898 2 27.0465 14.2413 30.2722
1916 2 23.8551 17.475 30.2001
2096 2 23.9051 14.3651 33.3769
2116 2 23.8372 17.5014 33.4001
2118 2 27.062 17.5059 33.314
1920 2 30.116 17.4718 30.2687
1926 2 8.03585 20.754 30.2299
2145 2 6.51964 22.2678 31.8796
2127 2 9.63043 19.1323 31.7385
2128 2 11.2222 20.7382 33.3137
1932 2 17.5486 20.7056 30.1264
2131 2 15.8892 19.135 31.8202
2151 2 15.9017 22.2353 31.7299
1934 2 20.7062 20.8191 30.1624
2133 2 19.0672 19.1241 31.8239
2134 2 20.7078 20.7867 33.4431
2135 2 22.314 19.1907 31.757
2136 2 23.8632 20.8537 33.4112
2137 2 25.4973 19.229 31.7299
1940 2 30.1044 20.7614 30.2654
2140 2 30.2472 20.7799 33.4215
2159 2 28.4693 22.3751 31.8346
1966 2 8.03626 27.0302 30.292
1968 2 11.1656 27.0109 30.2778
2148 2 11.1246 23.8599 33.2894
2150 2 14.3519 23.8622 33.2671
2152 2 17.5614 23.8241 33.3332
1954 2 20.6967 23.8047 30.2384
1974 2 20.7207 27.0168 30.2074
2174 2 20.7435 27.0557 33.3734
2175 2 22.4472 25.4092 31.8171
1960 2 30.1325 23.9992 30.2409
2160 2 30.2354 23.9738 33.3887
1986 2 7.93781 30.2756 30.1937
1988 2 11.1542 30.1981 30.1894
2188 2 11.1128 30.1325 33.3032
1990 2 14.3009 30.156 30.1926
1992 2 17.4534 30.1412 30.1835
2191 2 15.8767 28.4954 31.8222
2192 2 17.4754 30.2016 33.468
1994 2 20.7598 30.1495 30.1867
2193 2 19.0429 28.546 31.8122
2194 2 20.7501 30.1679 33.4619
1996 2 23.88 30.0994 30.1865
2196 2 23.8756 30.0826 33.4095
2200 2 30.1145 30.2278 33.3016
9761 2 31.7759 25.5185 25.5715
9941 2 31.6925 22.3502 28.6325
9921 2 31.7248 19.1087 28.593
9741 2 31.7235 22.2625 25.5246
2248 2 11.1435 7.98923 36.5878
2249 2 12.784 6.39604 34.9866
2250 2 14.4064 8.00451 36.5892
2252 2 17.4306 7.89727 36.5874
2256 2 23.8003 7.8522 36.6368
2259 2 28.554 6.42715 35.0564
2586 2 7.93185 30.2355 39.779
2265 2 6.41841 9.47768 34.9842
2266 2 7.98363 11.1509 36.6005
2267 2 9.58646 9.53287 34.955
2269 2 12.7517 9.60262 34.9579
2289 2 12.7713 12.6931 35.0683
2272 2 17.4377 11.1931 36.5358
2273 2 19.0494 9.54208 34.9804
2275 2 22.2246 9.59358 35.0393
2295 2 22.2284 12.8073 35.0177
2276 2 23.8508 11.2111 36.5958
2277 2 25.487 9.55406 35.0073
2279 2 28.6071 9.54887 35.0693
2299 2 28.6354 12.7739 35.0188
2286 2 7.92112 14.2682 36.5731
2307 2 9.57445 15.9882 35.0546
2310 2 14.3424 17.5288 36.4952
2311 2 15.9955 15.8891 34.943
2312 2 17.553 17.6239 36.577
2313 2 19.0937 15.8113 34.9668
2314 2 20.7025 17.5984 36.507
2317 2 25.453 15.8838 35.0362
2318 2 26.9824 17.523 36.6433
2319 2 28.6487 15.8362 34.935
2320 2 30.2546 17.4999 36.4894
2327 2 9.54575 19.1647 35.0177
2349 2 12.8344 22.2379 34.9786
2331 2 15.9599 19.1856 34.8919
2337 2 25.4441 19.1887 35.0188
2339 2 28.6191 19.1782 34.9846
2359 2 28.5831 22.3428 35.0152
2346 2 8.02102 23.843 36.5317
2348 2 11.0493 23.8522 36.4968
2368 2 11.0736 27.0368 36.5216
2369 2 12.7679 25.4719 34.8817
2352 2 17.5284 23.7064 36.5359
2370 2 14.4289 27.0787 36.5651
2371 2 15.9837 25.4739 34.9284
2373 2 19.1564 25.4375 34.9633
2375 2 22.3161 25.4315 34.9074
2356 2 23.8797 23.8153 36.4263
2380 2 30.2575 26.8925 36.3916
2386 2 7.95698 30.163 36.4995
2388 2 11.1326 30.1393 36.5269
2389 2 12.7986 28.582 34.8332
2390 2 14.4186 30.178 36.4983
2392 2 17.5564 30.112 36.4884
2398 2 26.9785 30.2287 36.4009
2399 2 28.5658 28.5227 34.8056
9701 2 31.7572 15.8448 25.4761
9881 2 31.7053 12.6732 28.5793
9681 2 31.7237 12.6329 25.4648
9841 2 31.7619 6.39614 28.6003
2448 2 11.12 8.02889 39.6721
2624 2 9.47296 6.39415 41.2704
2452 2 17.4527 7.8681 39.7218
2628 2 22.3179 6.3788 41.2703
2458 2 26.9708 7.86215 39.7424
2460 2 30.1378 7.93624 39.6381
2466 2 7.95212 11.168 39.7267
2633 2 6.4281 9.53323 41.3498
2487 2 9.70323 12.7285 38.166
2634 2 9.50684 9.6038 41.3627
2635 2 12.6864 9.59873 41.2863
2645 2 12.6969 12.7709 41.2851
2470 2 14.3169 11.1518 39.6117
2472 2 17.4581 11.1213 39.6746
2646 2 15.8474 12.8142 41.318
2473 2 19.1582 9.49238 38.1142
2474 2 20.7289 11.1651 39.7223
2475 2 22.2585 9.4837 38.2219
2637 2 19.1243 9.43409 41.3321
2647 2 19.1211 12.772 41.3749
2648 2 22.3243 12.7756 41.3873
2477 2 25.4184 9.52793 38.1893
2478 2 27.0469 11.0799 39.7579
2497 2 25.488 12.7925 38.1544
2649 2 25.4444 12.7984 41.3643
2480 2 30.2602 11.1633 39.6934
2499 2 28.6352 12.7928 38.1181
2640 2 28.6544 9.47764 41.4153
2650 2 28.6139 12.7779 41.3149
2486 2 7.94484 14.24 39.7718
2506 2 7.91326 17.5153 39.7303
2653 2 6.39064 15.8075 41.4514
2507 2 9.62249 15.9032 38.1157
2508 2 11.2257 17.4694 39.7772
2509 2 12.768 15.8134 38.1223
2654 2 9.58227 15.8707 41.3722
2492 2 17.4933 14.3069 39.7087
2510 2 14.4173 17.4768 39.8021
2511 2 15.9279 15.8567 38.1091
2494 2 20.7359 14.3364 39.7141
2513 2 19.1105 15.9376 38.137
2515 2 22.3274 15.989 38.1114
2657 2 19.0887 15.9563 41.3618
2496 2 23.8915 14.4338 39.7689
2519 2 28.6176 15.8691 38.2215
2580 2 30.2661 26.9634 39.6252
2579 2 28.6048 25.362 37.9572
2560 2 30.2601 23.7536 39.628
2527 2 9.53719 19.1314 38.059
2528 2 11.1638 20.7059 39.6904
2529 2 12.7868 19.1363 38.0798
2549 2 12.8495 22.2326 38.0659
2664 2 9.60362 19.0966 41.3683
2665 2 12.8133 19.0851 41.4246
2674 2 9.5531 22.2812 41.2934
2675 2 12.7996 22.2469 41.3809
2532 2 17.5429 20.6285 39.6266
2676 2 15.8846 22.1668 41.3142
2535 2 22.3167 19.1305 38.1617
2555 2 22.1972 22.1796 38.0801
2667 2 19.1441 19.0075 41.2831
2668 2 22.2634 19.0226 41.256
2557 2 25.4622 22.1553 38.0556
2669 2 25.4324 18.9657 41.2713
2679 2 25.4185 22.1671 41.268
2539 2 28.629 19.1417 38.1908
2670 2 28.5931 19.0413 41.229
2689 2 25.4501 25.4008 41.2744
2566 2 7.94341 27.0514 39.6746
2548 2 11.1569 23.8826 39.6779
2568 2 11.1862 27.0608 39.7101
2569 2 12.823 25.4441 38.1056
2684 2 9.55388 25.4677 41.3454
2550 2 14.4257 23.8934 39.721
2552 2 17.5498 23.7787 39.6901
2572 2 17.5141 26.9168 39.6758
2573 2 19.1858 25.3616 38.0385
2574 2 20.6908 26.9762 39.6515
2688 2 22.247 25.3925 41.3176
2556 2 23.8031 23.7985 39.651
2558 2 27.1338 23.7509 39.6659
2576 2 23.8572 27.017 39.6648
2577 2 25.5005 25.4515 37.9935
9541 2 31.7412 22.2052 22.3619
9521 2 31.7968 19.0264 22.3449
5407 2 9.57108 31.7756 22.2806
5409 2 12.7213 31.7291 22.2699
5611 2 15.9205 31.7867 25.4544
5615 2 22.3105 31.7672 25.389
5819 2 28.7252 31.7599 28.6142
6017 2 25.5401 31.625 31.7821
6413 2 19.1419 31.7537 38.1261
6607 2 19.1155 31.749 41.3263
6608 2 22.3051 31.6669 41.3109
13601 2 31.7407 31.7625 25.5057
2724 2 11.0399 7.98276 42.9643
2725 2 14.3915 7.93516 42.855
2850 2 14.3732 7.97893 46.1302
2852 2 17.4972 7.81057 46.0857
2856 2 23.8393 7.9044 46.1622
2858 2 27.0107 7.90639 46.0813
2860 2 30.3147 7.91554 46.1128
2865 2 6.44172 9.59106 44.5267
2885 2 6.42996 12.7921 44.5388
2869 2 12.6265 9.62062 44.5485
2889 2 12.7236 12.7853 44.5468
2735 2 14.3332 11.1691 42.9157
2736 2 17.4965 11.1801 42.9382
2870 2 14.3635 11.1958 46.1604
2871 2 15.9573 9.52818 44.4855
2872 2 17.4915 11.2844 46.0939
2737 2 20.7237 11.1397 42.9581
2873 2 19.1203 9.4174 44.4748
2874 2 20.6593 11.2151 46.0828
2875 2 22.2552 9.43688 44.5201
2738 2 23.8757 11.0747 42.9643
2739 2 26.9396 11.0817 42.9586
2878 2 26.996 11.1504 46.1002
2879 2 28.6817 9.49995 44.4759
2880 2 30.3259 11.149 46.1519
2899 2 28.6313 12.7178 44.4872
2753 2 7.97064 17.4472 43.0416
2906 2 8.00618 17.4312 46.2387
2744 2 11.1005 14.3204 42.9776
2888 2 11.0444 14.395 46.1358
2909 2 12.8322 15.9545 44.5555
2746 2 17.4614 14.3909 43.047
2757 2 20.7129 17.4343 43.0388
2914 2 20.5894 17.4097 46.1196
2896 2 23.7606 14.322 46.0426
2898 2 27.0043 14.2936 46.1848
2917 2 25.386 15.9172 44.4618
2750 2 30.2547 14.3136 42.8674
2760 2 30.1387 17.4526 42.8906
2900 2 30.1893 14.2877 46.2346
2919 2 28.5083 15.9155 44.5197
2920 2 30.1238 17.4917 46.2228
2763 2 7.93251 20.6491 42.912
2945 2 6.36498 22.1838 44.5915
2927 2 9.64744 19.0497 44.5971
2928 2 11.2105 20.6362 46.2634
2929 2 12.8188 19.0121 44.5564
2947 2 9.63859 22.2596 44.5526
2949 2 12.7634 22.2166 44.4993
2766 2 17.54 20.538 42.8982
2931 2 15.9077 18.9251 44.5627
2932 2 17.5407 20.5282 46.2181
2951 2 15.8603 22.1411 44.5133
2953 2 19.1448 22.116 44.5233
2955 2 22.2718 22.1859 44.5386
2768 2 23.7966 20.5821 42.9252
2769 2 27.057 20.5912 42.9321
2936 2 23.867 20.5487 46.1826
2937 2 25.4345 18.9296 44.5615
2957 2 25.4311 22.2291 44.5957
2940 2 30.1262 20.5627 46.1762
2959 2 28.6045 22.2219 44.5921
2773 2 7.9087 23.8485 42.8788
2946 2 7.99474 23.8473 46.2041
2965 2 6.37225 25.5195 44.5366
2966 2 7.97227 27.0905 46.1042
2967 2 9.60425 25.4647 44.4748
2968 2 11.1806 27.0701 46.1629
2969 2 12.6882 25.3553 44.4784
2776 2 17.5245 23.8198 42.8495
2785 2 14.3326 26.9544 42.8946
2950 2 14.3345 23.7988 46.2008
2952 2 17.4577 23.765 46.1427
2970 2 14.309 26.9669 46.1336
2972 2 17.4245 26.9834 46.032
2777 2 20.6832 23.7615 42.8409
2954 2 20.7192 23.8098 46.1255
2973 2 19.1288 25.4607 44.4637
2779 2 27.0889 23.7983 42.8528
2788 2 23.8463 27.0533 42.9601
2789 2 27.0278 27.0524 42.9166
2976 2 23.7705 26.953 46.1098
2977 2 25.405 25.3205 44.5475
2978 2 27.0374 27.0411 46.1052
2780 2 30.2072 23.7991 42.7886
2790 2 30.2094 27.0417 42.8477
2979 2 28.6606 25.397 44.6038
2986 2 7.90555 30.2283 46.0617
2794 2 11.1187 30.2488 42.864
2989 2 12.6982 28.6297 44.4794
2796 2 17.5376 30.1243 42.9851
2990 2 14.2569 30.1975 46.1719
2992 2 17.5163 30.1606 46.0455
2994 2 20.7245 30.1636 46.0465
2799 2 27.0158 30.1717 42.9063
2996 2 23.7695 30.1313 46.0754
2998 2 27.144 30.1554 46.0701
3046 2 7.89753 8.08573 49.3325
3047 2 9.50217 6.45266 47.6067
3048 2 11.1488 8.03952 49.2758
3049 2 12.7292 6.43585 47.6618
3054 2 20.754 7.94443 49.1841
3056 2 23.827 7.9252 49.2729
3058 2 26.9893 7.866 49.3724
3060 2 30.2492 7.87065 49.3498
3065 2 6.37699 9.62446 47.5859
3085 2 6.44069 12.7529 47.6013
3067 2 9.53011 9.67804 47.6271
3089 2 12.6932 12.8529 47.7032
3070 2 14.3251 11.1886 49.2016
3072 2 17.478 11.2473 49.1669
3073 2 19.0863 9.50162 47.6436
3074 2 20.7231 11.1775 49.2757
3095 2 22.2712 12.7779 47.6954
3077 2 25.3981 9.62354 47.7549
3097 2 25.3425 12.7132 47.7979
3079 2 28.6434 9.57669 47.7758
3086 2 8.0048 14.4132 49.2506
3110 2 14.4234 17.4661 49.1644
3094 2 20.6427 14.4664 49.2303
3098 2 27.0457 14.3725 49.3836
3117 2 25.3004 15.9534 47.7288
3118 2 26.9428 17.485 49.3493
3126 2 8.06843 20.6523 49.257
3135 2 22.1709 18.9732 47.7777
3155 2 22.2707 22.1554 47.743
3136 2 23.9002 20.5332 49.3416
3140 2 30.1027 20.6684 49.3399
3159 2 28.4829 22.2572 47.7364
3146 2 8.05091 23.856 49.3898
3166 2 7.93112 26.9849 49.3819
3167 2 9.67117 25.4216 47.786
3150 2 14.2828 23.8153 49.2495
3152 2 17.5145 23.7036 49.2672
3170 2 14.1873 26.971 49.3238
3172 2 17.4875 26.9738 49.3413
3154 2 20.649 23.7223 49.315
3173 2 19.1454 25.4308 47.7014
3176 2 23.863 26.9161 49.251
3160 2 30.2175 23.8463 49.3708
3179 2 28.6071 25.4351 47.7461
3187 2 9.60379 28.6901 47.7875
3191 2 15.8612 28.6234 47.7721
3192 2 17.5564 30.1885 49.4184
3193 2 19.1529 28.5237 47.6921
3194 2 20.7147 30.1664 49.3141
3196 2 23.8883 30.1533 49.3257
3197 2 25.4649 28.5525 47.7152
3198 2 27.0521 30.1626 49.3118
3200 2 30.24 30.2302 49.2004
3247 2 9.51632 6.49227 50.9732
3449 2 12.7145 6.43178 54.1565
3250 2 14.3196 7.98076 52.4784
3251 2 15.9737 6.44311 50.8227
3451 2 15.9772 6.40071 54.1477
3254 2 20.6627 7.97336 52.477
3256 2 23.8909 7.95998 52.4238
3457 2 25.5113 6.39528 54.1198
3267 2 9.4987 9.67286 50.96
3269 2 12.6596 9.6246 50.8894
3287 2 9.59566 12.71 50.8247
3289 2 12.6777 12.84 50.8296
3469 2 12.654 9.52909 54.0873
3489 2 12.7077 12.7936 53.9728
3270 2 14.3496 11.1721 52.4673
3271 2 15.9378 9.52494 50.8161
3272 2 17.5487 11.172 52.5072
3291 2 15.9112 12.9293 50.8187
3491 2 15.9504 12.8875 54.0162
3273 2 19.0769 9.54655 50.8531
3293 2 19.0671 12.8383 50.839
3475 2 22.2697 9.60611 54.0368
3495 2 22.2747 12.6996 53.9216
3277 2 25.4798 9.67148 50.9329
3297 2 25.3827 12.7717 50.9507
3477 2 25.5507 9.55793 54.0781
3279 2 28.5815 9.57259 50.968
3280 2 30.1349 11.1571 52.6039
3286 2 7.95606 14.2924 52.3728
3505 2 6.36174 15.9531 53.9966
3308 2 11.2406 17.474 52.4424
3309 2 12.7597 15.8692 50.7716
3507 2 9.58965 15.9309 54.004
3310 2 14.3944 17.5074 52.4622
3511 2 16.0095 15.9812 54.0519
3294 2 20.7244 14.4223 52.3462
3513 2 19.0515 16.0037 53.9432
3316 2 23.8195 17.506 52.41
3300 2 29.9891 14.2853 52.5096
3325 2 6.39317 19.0153 50.8686
3326 2 7.99754 20.7371 52.5051
3327 2 9.61127 19.0446 50.8305
3329 2 12.7403 19.126 50.7517
3349 2 12.6744 22.2478 50.8729
3527 2 9.62004 19.0836 54.0237
3549 2 12.6988 22.3245 54.0039
3330 2 14.3655 20.5888 52.5159
3331 2 16.0671 19.0757 50.7939
3351 2 15.9579 22.1592 50.8916
3551 2 16.0242 22.2312 54.0667
3355 2 22.2195 22.1612 50.9371
3553 2 19.1242 22.1554 54.0127
3336 2 23.8509 20.5821 52.5427
3357 2 25.4963 22.2214 50.9008
3339 2 28.51 19.0638 51.0015
3559 2 28.5312 22.2222 54.0837
3346 2 8.0234 23.9074 52.51
3569 2 12.6576 25.4246 54.0228
3371 2 15.8912 25.3785 50.9897
3571 2 15.9146 25.3756 54.0086
3373 2 19.1344 25.3945 50.971
3375 2 22.2696 25.3721 50.9476
3573 2 19.1164 25.3907 54.017
3356 2 23.8578 23.7775 52.6474
3377 2 25.4648 25.3705 50.9317
3360 2 30.1876 23.8302 52.4549
3379 2 28.5079 25.4534 50.8852
3380 2 30.2569 26.9942 52.5529
3579 2 28.5416 25.4011 54.1204
3386 2 7.9307 30.2106 52.4931
3387 2 9.60922 28.5756 50.8759
3388 2 11.2277 30.2621 52.4381
3587 2 9.56738 28.5124 54.0021
3589 2 12.7284 28.5501 54.0421
3390 2 14.3011 30.2659 52.521
3391 2 15.874 28.5986 50.9865
3394 2 20.6289 30.174 52.4382
3395 2 22.3034 28.4948 50.9521
3593 2 19.0647 28.5716 54.0536
3595 2 22.3436 28.4742 54.0609
3399 2 28.6076 28.5575 50.9275
3599 2 28.5984 28.6285 54.1177
11641 2 31.7587 6.44057 57.1958
3446 2 7.90078 7.91175 55.5901
3651 2 15.946 6.48187 57.2254
3454 2 20.6289 7.91897 55.6186
3460 2 30.1096 8.05324 55.6461
3466 2 7.90939 11.0768 55.5201
3468 2 11.0866 11.1537 55.6395
3470 2 14.3617 11.1725 55.7098
3472 2 17.4483 11.1104 55.5897
3673 2 19.0099 9.48645 57.1926
3693 2 19.0272 12.7495 57.1551
3476 2 23.8774 11.1436 55.6502
3697 2 25.4887 12.7341 57.1797
3480 2 30.1797 11.1163 55.6747
3486 2 7.95087 14.2483 55.558
3506 2 7.91168 17.5581 55.6419
3488 2 11.2001 14.3438 55.6542
3490 2 14.3131 14.4088 55.7092
3494 2 20.719 14.3458 55.5523
3514 2 20.7041 17.5807 55.5681
3713 2 19.0387 15.9548 57.1646
3496 2 23.8593 14.3445 55.518
3498 2 27.0705 14.3277 55.5277
3516 2 23.788 17.5146 55.5002
3717 2 25.4414 15.9172 57.1567
3520 2 30.0994 17.5023 55.6185
3526 2 7.88893 20.7114 55.64
3528 2 11.2349 20.6853 55.6758
3530 2 14.3126 20.6026 55.6622
3731 2 15.9835 19.085 57.2149
3753 2 19.0643 22.1745 57.1791
3755 2 22.3216 22.2512 57.164
3737 2 25.4475 19.134 57.1075
3757 2 25.4089 22.2972 57.135
3739 2 28.5337 19.1664 57.181
3759 2 28.5779 22.321 57.1824
3546 2 7.91769 23.8374 55.5788
3566 2 7.86096 27.0161 55.6121
3550 2 14.3208 23.8229 55.7417
3570 2 14.3108 27.0314 55.695
3572 2 17.432 26.9912 55.6694
3554 2 20.7939 23.8444 55.6003
3773 2 19.14 25.4108 57.2274
3578 2 26.9143 26.9666 55.6982
3586 2 7.91812 30.2091 55.6004
3588 2 11.1383 30.2355 55.6247
3594 2 20.7685 30.1633 55.6738
3596 2 23.9496 30.0837 55.6994
11381 2 31.7746 28.6622 50.9176
10901 2 31.7975 15.8959 44.5262
10921 2 31.7988 19.1054 44.4978
10941 2 31.7785 22.2051 44.491
10961 2 31.7799 25.4803 44.5168
10981 2 31.7712 28.6664 44.4912
11141 2 31.7834 22.2997 47.6985
11441 2 31.7693 6.45054 54.0825
11261 2 31.7507 9.49078 50.9277
11281 2 31.6658 12.7497 50.8015
11301 2 31.5869 15.8825 50.8346
11501 2 31.662 15.8866 54.1042
11321 2 31.6054 19.0342 50.9594
11541 2 31.6839 22.2195 54.1769
6817 2 25.4277 31.7666 44.4985
7007 2 9.58874 31.7856 47.7022
7013 2 19.0607 31.7913 47.7306
7415 2 22.3735 31.7894 54.0256
7417 2 25.5068 31.7605 54.0456
7219 2 28.646 31.7405 50.948
7419 2 28.5909 31.6934 54.0975
7609 2 12.8161 31.7891 57.1688
7611 2 15.8773 31.7929 57.1314
7613 2 19.0288 31.7839 57.186
14801 2 31.7924 31.7709 44.4452
13341 2 31.7946 54.0174 19.106
13301 2 31.7328 47.8005 19.1388
13281 2 31.7069 44.4705 19.2288
13101 2 31.7616 47.8112 15.9023
12901 2 31.7824 47.741 12.6975
13081 2 31.7109 44.5485 15.9902
13061 2 31.685 41.2557 15.9595
12861 2 31.7256 41.3637 12.6975
13041 2 31.6858 38.0759 16.0187
4406 2 7.9766 33.2968 7.94249
4411 2 15.827 31.8361 6.45628
4414 2 20.6318 33.2982 7.9656
4433 2 19.0803 34.9015 6.39657
4416 2 23.8314 33.3504 7.92162
4446 2 7.79054 39.7285 8.01842
4428 2 11.173 36.4956 7.97782
4447 2 9.45307 38.1304 6.39307
4448 2 11.1171 39.7351 8.01803
4449 2 12.7384 38.1658 6.38183
4430 2 14.2451 36.478 7.97602
4432 2 17.4909 36.5076 7.984
4451 2 15.8945 38.2019 6.3686
4452 2 17.5602 39.804 7.98477
4434 2 20.7362 36.5526 7.96544
4436 2 23.8484 36.6578 7.97326
4438 2 27.0699 36.6727 7.96828
4460 2 30.093 39.7756 7.95926
4466 2 7.82069 43.0279 7.9607
4467 2 9.4392 41.3541 6.37623
4468 2 11.1174 43.0064 7.92426
4470 2 14.281 43.0245 7.88299
4472 2 17.5016 42.9347 7.93996
4475 2 22.2093 41.2619 6.45218
4476 2 23.8807 42.9417 7.93098
4477 2 25.5337 41.3223 6.46262
4480 2 30.1846 42.945 7.84552
4509 2 12.7306 47.7148 6.38986
4512 2 17.4209 49.3435 7.90663
4494 2 20.7652 46.1821 7.88441
4498 2 27.0447 46.1486 7.79738
4516 2 23.8672 49.2577 7.88773
4500 2 30.1786 46.0909 7.92293
4520 2 30.1667 49.2416 8.00636
4526 2 7.89735 52.4766 7.98313
4527 2 9.48846 50.8335 6.38222
4528 2 11.0863 52.4404 7.97632
4535 2 22.2114 50.8802 6.42472
4555 2 22.2479 53.9999 6.46074
4557 2 25.4572 54.0379 6.50974
4539 2 28.5698 50.812 6.36739
4540 2 30.1806 52.5413 8.03196
4546 2 7.98084 55.5764 7.88356
4548 2 11.0469 55.6746 7.98051
4569 2 12.7821 57.225 6.38563
4571 2 15.8325 57.2311 6.47445
4554 2 20.5762 55.6404 7.97239
4579 2 28.6568 57.1974 6.47167
12821 2 31.6782 34.9068 12.7453
4606 2 7.96497 33.4225 11.1151
4608 2 11.1532 33.398 11.0972
4627 2 9.52628 35.0344 9.54751
4610 2 14.2825 33.3032 11.1268
4612 2 17.5144 33.2639 11.057
4631 2 15.8752 34.9114 9.54516
12661 2 31.7584 41.4255 9.57216
4635 2 22.2128 34.9499 9.62755
4616 2 23.7706 33.3544 11.2468
4637 2 25.5226 34.9711 9.58854
4639 2 28.6709 34.9626 9.58674
4646 2 7.86402 39.7141 11.2915
4647 2 9.49054 38.1005 9.66523
4651 2 15.8613 38.1542 9.63658
4653 2 19.1223 38.1604 9.65267
4636 2 23.8259 36.6565 11.1921
4656 2 23.9314 39.68 11.1219
4660 2 30.1558 39.6902 11.0534
4667 2 9.46117 41.3444 9.65818
4668 2 11.0828 42.9388 11.2236
4669 2 12.7213 41.2793 9.62775
4687 2 9.47618 44.6027 9.5617
4689 2 12.7311 44.6491 9.56702
4670 2 14.3481 42.9374 11.2406
4671 2 15.8459 41.2718 9.58861
4672 2 17.4614 42.86 11.2053
4691 2 15.884 44.6505 9.56375
4674 2 20.5974 42.8643 11.1424
4675 2 22.2136 41.2352 9.50417
4693 2 19.0592 44.5846 9.53168
4695 2 22.2317 44.5151 9.4886
4676 2 23.8805 42.8637 11.1363
4697 2 25.4789 44.5048 9.46878
4699 2 28.6169 44.4578 9.54356
4686 2 7.90565 46.1756 11.2258
4705 2 6.41065 47.7446 9.45936
4706 2 7.95432 49.3681 11.1881
4688 2 11.1165 46.224 11.2328
4707 2 9.53725 47.759 9.42135
4708 2 11.0913 49.3323 11.1572
4709 2 12.7664 47.7707 9.4964
4712 2 17.3596 49.2553 11.113
4713 2 19.0868 47.711 9.52996
4696 2 23.805 46.1205 11.1052
4698 2 27.0442 46.1664 11.0784
4717 2 25.4415 47.7603 9.48905
4720 2 30.1982 49.3516 11.0774
4728 2 11.055 52.4615 11.1414
4749 2 12.7781 54.0853 9.50669
4730 2 14.253 52.4366 11.1308
4731 2 15.8289 50.9285 9.47157
4751 2 15.8919 54.1108 9.48879
4733 2 19.0829 50.9399 9.51062
4735 2 22.2031 50.8992 9.51294
4753 2 18.9698 54.0295 9.55116
4736 2 23.8994 52.5276 11.0664
4739 2 28.494 50.9417 9.56411
4746 2 7.95433 55.5339 11.118
4765 2 6.37158 57.1899 9.4909
4748 2 11.1473 55.6318 11.1269
4754 2 20.6851 55.6887 11.2028
4756 2 23.8134 55.554 11.1422
4758 2 27.0737 55.5281 11.1245
4777 2 25.4673 57.1708 9.44896
4779 2 28.6579 57.1577 9.46764
4806 2 7.99944 33.529 14.2577
4807 2 9.57699 31.8169 12.7091
4829 2 12.6798 35.0636 12.7588
5007 2 9.59355 31.8365 15.9277
4810 2 14.2396 33.2565 14.3594
4831 2 15.8743 34.9647 12.7133
5031 2 15.8852 34.8856 15.8705
4814 2 20.7529 33.2569 14.3339
4833 2 19.1348 34.9265 12.6781
5033 2 19.0997 34.8581 15.8469
4816 2 23.7588 33.2912 14.3778
12441 2 31.7844 38.1316 6.419
4818 2 27.0193 33.3318 14.3509
4837 2 25.4559 34.996 12.7367
5037 2 25.3972 34.942 15.9459
4839 2 28.6737 34.9683 12.6673
5039 2 28.7409 34.9968 15.9026
4826 2 7.95473 36.6243 14.2312
4846 2 7.93806 39.7836 14.2971
5047 2 9.56876 38.2045 15.8595
4832 2 17.5156 36.5565 14.3083
4850 2 14.2376 39.7525 14.3463
4851 2 15.8651 38.144 12.6777
5051 2 15.8398 38.1619 15.8726
4853 2 19.1097 38.1538 12.6963
5055 2 22.2525 38.0934 15.8297
4838 2 27.0518 36.6099 14.3424
4856 2 23.8902 39.6918 14.2096
5057 2 25.4252 38.1746 15.9315
4859 2 28.5959 38.1639 12.7
4866 2 7.96391 42.9078 14.4386
5065 2 6.3672 41.355 16.0223
4869 2 12.6409 41.2898 12.8063
4887 2 9.50396 44.5396 12.8591
4889 2 12.7342 44.553 12.854
5089 2 12.6106 44.4738 15.8736
5091 2 15.8776 44.3962 15.8426
4874 2 20.5975 42.9438 14.2943
4875 2 22.183 41.235 12.7137
4893 2 19.0402 44.5602 12.7085
5073 2 19.0039 41.3539 15.8676
5075 2 22.2309 41.3015 15.9234
5095 2 22.1649 44.5838 15.9215
4876 2 23.8412 42.9555 14.2902
4897 2 25.4797 44.5451 12.7599
5077 2 25.4919 41.3393 15.9196
4879 2 28.5166 41.3219 12.691
4880 2 30.148 42.9652 14.3237
4899 2 28.5726 44.4911 12.6702
5079 2 28.556 41.2896 15.8882
4906 2 7.90687 49.2876 14.2913
5107 2 9.55777 47.6828 15.9374
5109 2 12.6159 47.6942 15.9147
4892 2 17.4304 46.066 14.2869
4910 2 14.2892 49.3004 14.2991
4912 2 17.3905 49.2886 14.2793
5111 2 15.8016 47.6617 15.914
4913 2 19.1244 47.6488 12.6607
4914 2 20.7193 49.27 14.3702
4915 2 22.2825 47.6906 12.7344
5113 2 19.147 47.6327 15.9573
4917 2 25.4175 47.7535 12.7857
4900 2 30.166 46.097 14.3064
4919 2 28.58 47.7693 12.7404
5119 2 28.5426 47.7732 15.8782
4926 2 7.95033 52.4164 14.3121
4928 2 11.1113 52.4875 14.3633
4929 2 12.7077 50.8611 12.774
5127 2 9.58078 50.804 15.9909
4932 2 17.3781 52.4417 14.3438
4951 2 15.8636 54.0782 12.6481
4933 2 19.0913 50.895 12.6379
4934 2 20.7232 52.48 14.3121
4935 2 22.2937 50.8206 12.6418
4953 2 19.056 54.0689 12.6841
5133 2 19.058 50.8683 15.9685
5153 2 19.0989 54.1096 15.9502
5155 2 22.2635 54.1863 15.8981
4936 2 23.8691 52.4923 14.2779
4937 2 25.4789 50.8075 12.6517
4938 2 27.1029 52.4533 14.2335
5137 2 25.505 50.8336 15.911
5157 2 25.4816 54.0808 15.9457
4940 2 30.1784 52.5134 14.3009
5159 2 28.6192 54.0517 15.975
5165 2 6.40089 57.1093 15.9385
4948 2 11.1242 55.5423 14.3315
4967 2 9.55825 57.1741 12.7289
5169 2 12.7047 57.2083 15.9421
4950 2 14.2483 55.5797 14.3078
4952 2 17.489 55.6719 14.3069
4958 2 27.0877 55.6171 14.2267
4977 2 25.3567 57.2132 12.7512
5205 2 6.36435 31.9077 19.1206
5008 2 11.2115 33.3902 17.4665
5208 2 11.1814 33.3819 20.7215
5227 2 9.45945 34.9679 19.1385
5229 2 12.7836 34.9538 19.1733
5010 2 14.291 33.2276 17.4859
5012 2 17.542 33.204 17.5068
5231 2 15.9063 34.8778 19.1945
5014 2 20.6584 33.1985 17.5018
5235 2 22.3052 34.7722 19.1314
5018 2 27.0742 33.3979 17.5906
5217 2 25.4102 31.8376 19.1159
5020 2 30.297 33.3998 17.5682
5220 2 30.1639 33.4454 20.611
5026 2 7.9014 36.6153 17.5053
5246 2 7.89952 39.7941 20.68
5028 2 11.1624 36.5711 17.4502
5048 2 11.1851 39.7675 17.4394
5228 2 11.1282 36.6024 20.7544
5247 2 9.52066 38.208 19.1177
5030 2 14.2242 36.5568 17.4705
5032 2 17.5036 36.4821 17.4995
5052 2 17.4681 39.7536 17.4789
5251 2 15.8069 38.1194 19.1559
5252 2 17.4956 39.678 20.7229
5034 2 20.6876 36.4566 17.493
5054 2 20.6191 39.6862 17.4995
5234 2 20.6792 36.4938 20.6707
5253 2 19.0394 38.0658 19.1095
5254 2 20.6635 39.6891 20.6679
5036 2 23.8412 36.5014 17.561
5038 2 27.1411 36.5643 17.5839
5058 2 27.1323 39.7277 17.5953
5236 2 23.9539 36.4504 20.7046
5256 2 23.9248 39.7628 20.6981
5257 2 25.5409 38.152 19.1665
5267 2 9.51756 41.4103 19.0666
5269 2 12.7053 41.3245 19.1512
5289 2 12.6123 44.469 19.0962
5070 2 14.284 42.8441 17.456
5271 2 15.8546 41.3337 19.1299
5275 2 22.2359 41.3747 19.0684
5293 2 19.0753 44.424 19.1069
5076 2 23.8778 42.9889 17.5104
5276 2 23.9391 42.9495 20.7049
5278 2 27.0915 42.8354 20.6811
5297 2 25.483 44.5586 19.1289
5080 2 30.0831 42.8909 17.6264
5086 2 7.97289 46.0046 17.5333
5305 2 6.39897 47.7664 19.0438
5308 2 11.052 49.3304 20.6054
5309 2 12.6405 47.6565 19.0479
5090 2 14.2744 46.0112 17.5202
5092 2 17.5006 46.0133 17.533
5112 2 17.41 49.2753 17.5382
5310 2 14.3215 49.3497 20.6667
5311 2 15.8519 47.6087 19.1506
5312 2 17.4032 49.2678 20.7269
5294 2 20.692 46.1344 20.6314
5314 2 20.6966 49.2472 20.6592
5096 2 23.8142 46.1674 17.4613
5098 2 27.0021 46.0662 17.4203
5116 2 23.7869 49.2813 17.4864
5316 2 23.8002 49.3197 20.6325
5317 2 25.4797 47.7226 19.1181
5120 2 30.1115 49.4154 17.5107
5300 2 30.163 46.1368 20.7986
5319 2 28.5572 47.7427 19.1248
5126 2 7.93676 52.4103 17.5861
5326 2 7.9448 52.4316 20.6608
5328 2 11.0497 52.4521 20.5983
5130 2 14.2022 52.4128 17.4851
5332 2 17.3769 52.4709 20.7925
5351 2 15.8431 54.0347 19.1697
5134 2 20.7339 52.451 17.5343
5333 2 19.0307 50.8912 19.0907
5334 2 20.6668 52.542 20.7658
5353 2 19.0559 54.1441 19.1524
5355 2 22.2534 54.1413 19.1774
5136 2 23.8837 52.4304 17.5835
5338 2 26.9582 52.5063 20.6292
5359 2 28.6071 54.0793 19.1139
5146 2 8.03424 55.5484 17.5808
5346 2 8.00572 55.6088 20.7266
5369 2 12.6431 57.1256 19.1411
5150 2 14.2695 55.5512 17.5033
5152 2 17.4458 55.7083 17.552
5156 2 23.8918 55.7145 17.5662
5356 2 23.9723 55.6852 20.7541
5160 2 30.2532 55.6424 17.487
5406 2 7.9573 33.3879 23.9127
14671 2 31.6867 54.043 41.3896
5427 2 9.49315 34.9935 22.3361
5410 2 14.2556 33.4063 23.9061
14661 2 31.7383 50.8235 41.3898
5412 2 17.4858 33.2757 23.8084
5431 2 15.9082 34.9585 22.2188
14541 2 31.7288 54.0135 38.1858
5414 2 20.634 33.2397 23.7897
14521 2 31.7088 50.8135 38.1394
5433 2 19.0404 34.9216 22.2275
5435 2 22.3155 34.8693 22.2973
5417 2 25.4389 31.8594 22.3271
5419 2 28.5631 31.904 22.3397
5445 2 6.45401 38.1231 22.2853
5428 2 11.1287 36.5368 24.0043
5449 2 12.7126 38.1756 22.2956
5430 2 14.3 36.5217 23.9718
5450 2 14.3242 39.6487 23.8949
5454 2 20.6854 39.675 23.8813
5455 2 22.3291 38.0404 22.3501
5456 2 23.9203 39.6918 23.9418
5457 2 25.5748 38.0514 22.2944
5458 2 27.0867 39.7906 23.8052
5440 2 30.1986 36.4999 23.8116
5459 2 28.6811 38.1521 22.1556
5466 2 7.89245 42.874 23.8826
5467 2 9.58289 41.282 22.2571
5468 2 11.1817 42.9106 23.8493
5487 2 9.51369 44.4924 22.156
5489 2 12.7348 44.5411 22.1525
5470 2 14.2815 42.9279 23.8157
5471 2 15.8882 41.315 22.2261
5472 2 17.5012 43.0078 23.8332
5473 2 19.0589 41.3713 22.2503
5474 2 20.6578 43.0346 23.9096
5475 2 22.2634 41.376 22.2792
5495 2 22.2871 44.6249 22.2861
5476 2 23.9365 43.0445 23.8918
5499 2 28.6621 44.4304 22.3192
5486 2 7.94464 46.0944 23.9335
5505 2 6.40395 47.7487 22.2454
5488 2 11.1353 46.0864 23.9223
5507 2 9.46181 47.687 22.1934
5508 2 11.0803 49.2664 23.8643
5509 2 12.7548 47.652 22.2457
5492 2 17.4833 46.078 23.818
5513 2 19.068 47.6558 22.304
5514 2 20.6914 49.2784 23.9566
5498 2 27.0488 46.0949 23.8566
5516 2 23.8152 49.3017 23.9055
5517 2 25.4267 47.654 22.2194
5518 2 27.0722 49.2824 23.8951
5526 2 7.93197 52.4849 23.8308
5529 2 12.7355 50.9409 22.2981
5549 2 12.6698 54.0254 22.2331
5533 2 19.0133 50.8859 22.3708
5534 2 20.665 52.558 23.9668
5535 2 22.307 50.9831 22.3123
5537 2 25.4233 50.9658 22.2872
5539 2 28.6108 50.8652 22.2233
5540 2 30.1123 52.4832 23.9298
5559 2 28.5574 54.1483 22.2944
5569 2 12.6418 57.1517 22.2321
5550 2 14.3285 55.591 23.8265
5552 2 17.5701 55.5859 23.7944
5571 2 15.8995 57.1921 22.1931
5554 2 20.7075 55.6098 23.8712
5579 2 28.5377 57.2367 22.2659
5625 2 6.40619 34.9478 25.53
5825 2 6.41476 34.9207 28.6638
5809 2 12.6796 31.9454 28.5794
14501 2 31.7707 47.6195 38.176
5811 2 15.9109 31.8782 28.5906
5831 2 15.8091 34.9774 28.5713
14401 2 31.787 31.8052 38.0182
5633 2 19.1103 34.9696 25.4128
5635 2 22.2853 34.9375 25.398
5813 2 19.063 31.8388 28.5845
5833 2 19.0732 34.9195 28.5476
5835 2 22.2627 34.923 28.4999
5617 2 25.4604 31.8349 25.3993
14321 2 31.7331 50.8298 34.9338
5837 2 25.5176 34.9346 28.5083
5839 2 28.6443 34.9159 28.5119
5645 2 6.48217 38.0865 25.4612
5646 2 7.95552 39.748 27.0946
5845 2 6.38584 38.1518 28.7504
5648 2 11.1779 39.6368 27.0988
5847 2 9.59712 38.0993 28.713
5632 2 17.3985 36.5397 26.9639
5650 2 14.2551 39.6765 27.0905
5851 2 15.8412 38.1172 28.6499
5653 2 19.0607 38.1199 25.4457
5853 2 19.0535 38.1942 28.5783
5636 2 23.8813 36.6068 26.9333
5658 2 27.0593 39.7607 27.0267
5857 2 25.4399 38.157 28.6252
5659 2 28.6436 38.091 25.3983
5660 2 30.2376 39.7864 27.0285
5859 2 28.6204 38.0376 28.5749
5885 2 6.37698 44.5536 28.6964
5667 2 9.55797 41.2852 25.4784
5669 2 12.7062 41.3227 25.5076
5687 2 9.58113 44.4559 25.5801
5867 2 9.58343 41.3512 28.6996
5889 2 12.6307 44.5483 28.6365
5671 2 15.9238 41.2705 25.4696
5672 2 17.498 42.8733 27.0857
5691 2 15.7886 44.5476 25.4714
5891 2 15.7722 44.5266 28.6253
5673 2 19.0918 41.2578 25.5236
5675 2 22.2553 41.3372 25.5688
5875 2 22.2434 41.3759 28.6651
5893 2 19.1508 44.4438 28.6493
5676 2 23.8611 43.1035 27.0807
5677 2 25.4927 41.4151 25.4982
5877 2 25.3901 41.3918 28.6859
5679 2 28.6893 41.4398 25.3887
5699 2 28.6226 44.4609 25.4426
5899 2 28.548 44.4664 28.6068
5686 2 8.04627 46.1236 27.1113
5705 2 6.3683 47.7849 25.5017
5905 2 6.40701 47.7075 28.6518
5708 2 11.0743 49.1995 27.1222
5709 2 12.7899 47.6785 25.4871
5692 2 17.5363 46.1134 26.9717
5711 2 15.8595 47.7666 25.4188
5911 2 15.825 47.7019 28.5664
5694 2 20.7271 46.1085 26.957
5714 2 20.6726 49.3865 26.989
5913 2 19.063 47.7564 28.609
5915 2 22.3234 47.7316 28.6223
5716 2 23.8545 49.4119 27.0167
5717 2 25.4087 47.6195 25.4825
5718 2 27.0636 49.3116 26.9998
5917 2 25.4816 47.6777 28.6493
5700 2 30.1746 46.1041 27.028
5726 2 7.91984 52.4434 26.9763
5945 2 6.37699 54.0731 28.6118
5727 2 9.52181 50.864 25.4479
5729 2 12.7647 50.9039 25.4564
5749 2 12.6502 53.9816 25.4219
5929 2 12.7485 50.8707 28.6066
5947 2 9.58635 54.1209 28.6014
5949 2 12.698 54.0383 28.587
5731 2 15.914 50.835 25.418
5732 2 17.6062 52.4206 27.0494
5751 2 15.9364 53.9646 25.4391
5951 2 15.9286 53.9736 28.6197
5736 2 23.8054 52.5 27.0219
5738 2 27.0737 52.497 26.9757
5757 2 25.4018 54.1305 25.3516
5957 2 25.4053 54.2005 28.6056
5939 2 28.6888 50.8259 28.5939
5746 2 7.95255 55.6606 26.8834
5769 2 12.649 57.1984 25.4355
5750 2 14.3418 55.6704 27.0638
5754 2 20.7416 55.6354 27.0396
5758 2 27.1011 55.6862 26.9795
6006 2 7.94907 33.511 33.3902
6007 2 9.54916 31.9197 31.7562
6009 2 12.7209 31.8875 31.8145
6029 2 12.6105 35.0359 31.7933
5810 2 14.3019 33.4589 30.2382
5814 2 20.7405 33.3618 30.2508
6013 2 19.03 31.805 31.8154
6014 2 20.7199 33.3341 33.3859
5816 2 23.883 33.3074 30.1951
5818 2 27.0478 33.2969 30.1959
6016 2 23.8752 33.2952 33.3462
6018 2 27.1009 33.2702 33.4023
14161 2 31.7956 57.2126 31.7013
6039 2 28.6686 34.8906 31.7908
5826 2 8.04726 36.5598 30.3339
6046 2 7.97806 39.661 33.3309
5832 2 17.4868 36.5069 30.2786
5850 2 14.1341 39.733 30.204
6030 2 14.2545 36.5644 33.4492
6032 2 17.4226 36.5251 33.3967
6050 2 14.2 39.7134 33.4627
6051 2 15.8217 38.1395 31.7828
6052 2 17.4653 39.7625 33.4714
5834 2 20.6739 36.5577 30.2393
5854 2 20.6309 39.7775 30.2586
6034 2 20.6403 36.5643 33.3609
6054 2 20.6155 39.78 33.4084
6055 2 22.3412 38.1915 31.8522
5836 2 23.848 36.5113 30.2081
5858 2 27.0847 39.8051 30.2176
6057 2 25.4415 38.1538 31.8672
5840 2 30.2938 36.5249 30.2574
5860 2 30.2128 39.7741 30.2331
6040 2 30.3082 36.5083 33.3988
6059 2 28.564 38.0976 31.8414
6060 2 30.2645 39.7743 33.4039
5866 2 7.94997 42.9583 30.2799
6067 2 9.58481 41.2818 31.7772
6068 2 11.1933 42.9551 33.3424
5870 2 14.1852 42.8603 30.2379
5872 2 17.4866 42.8301 30.2162
6070 2 14.2408 42.9144 33.4572
6071 2 15.8623 41.2907 31.824
6072 2 17.4726 42.8938 33.5378
6091 2 15.8063 44.5717 31.8632
6074 2 20.6397 42.897 33.458
6093 2 19.0773 44.5111 31.8795
6076 2 23.76 42.9076 33.4043
6077 2 25.4197 41.3459 31.8254
6097 2 25.4978 44.4876 31.8022
6080 2 30.1789 42.882 33.444
6099 2 28.5464 44.4786 31.7714
6088 2 11.2156 46.0813 33.3336
6107 2 9.52197 47.6757 31.7517
5892 2 17.4272 46.1412 30.2596
5910 2 14.3038 49.2221 30.2622
5912 2 17.4129 49.3704 30.2529
5894 2 20.7316 46.0695 30.2481
5914 2 20.6723 49.3981 30.2252
6113 2 19.0639 47.7028 31.9207
6115 2 22.3016 47.7225 31.8889
5896 2 23.8475 46.0039 30.193
6117 2 25.4494 47.667 31.8111
6118 2 27.0237 49.2795 33.4729
5900 2 30.1522 46.1505 30.1792
6100 2 30.215 46.0774 33.4219
5926 2 7.97728 52.3713 30.1484
6125 2 6.43578 50.7738 31.8586
6145 2 6.46951 54.0478 31.833
5928 2 11.1346 52.4465 30.2238
6127 2 9.56308 50.7673 31.8467
6129 2 12.7107 50.827 31.8515
6147 2 9.55499 54.115 31.8559
6132 2 17.4789 52.3485 33.3431
6151 2 15.8638 53.9382 31.7136
5934 2 20.6844 52.4474 30.0868
6134 2 20.6835 52.3609 33.2979
6153 2 19.0891 54.0412 31.6678
6155 2 22.3073 54.1107 31.7128
5936 2 23.835 52.4659 30.1543
5938 2 27.0076 52.496 30.1609
6137 2 25.3955 50.8096 31.7932
6138 2 26.9585 52.4475 33.44
5940 2 30.2549 52.4554 30.1215
6139 2 28.666 50.8112 31.7965
6159 2 28.6237 54.0748 31.7496
5950 2 14.3179 55.6961 30.2102
5952 2 17.5152 55.7475 30.1218
6150 2 14.2352 55.6342 33.3265
6152 2 17.4561 55.6547 33.2911
6154 2 20.7359 55.7099 33.313
6156 2 23.9155 55.7215 33.3691
6158 2 26.9135 55.6386 33.3945
6160 2 30.2371 55.6664 33.4027
6206 2 7.96915 33.565 36.4866
6207 2 9.54599 31.8382 34.8886
6208 2 11.1336 33.5875 36.5144
6209 2 12.7703 31.8539 34.8399
6210 2 14.3383 33.476 36.4533
14101 2 31.7911 47.7844 31.8057
6214 2 20.7578 33.2978 36.5489
14001 2 31.7619 31.8014 31.7946
6233 2 19.0103 34.9362 35.0122
6235 2 22.3339 34.9827 34.9842
6218 2 27.0028 33.3452 36.5084
6237 2 25.4271 34.9829 34.9289
6245 2 6.43701 38.1111 34.9999
6248 2 11.1013 39.77 36.567
6230 2 14.2903 36.6124 36.4931
6234 2 20.7278 36.6883 36.6155
6253 2 19.0293 38.1966 35.0951
6236 2 23.8746 36.6833 36.6359
6238 2 26.9995 36.5602 36.5864
6257 2 25.4256 38.2427 34.933
6240 2 30.2608 36.55 36.4638
6259 2 28.5727 38.2215 34.9691
6265 2 6.44649 41.3823 35.0035
6267 2 9.50999 41.3331 34.9522
6268 2 11.1567 42.892 36.5924
6287 2 9.44301 44.5245 34.9304
6270 2 14.3449 42.9201 36.494
6275 2 22.2126 41.2729 35.1058
6276 2 23.829 42.9024 36.6202
6278 2 27.0079 42.8866 36.5025
6297 2 25.4463 44.5349 34.8987
6280 2 30.2831 42.8928 36.4617
6306 2 7.97191 49.2613 36.5999
6288 2 11.1414 46.0843 36.51
6307 2 9.51266 47.6902 34.9036
6311 2 15.8636 47.5906 34.9377
6312 2 17.5164 49.1748 36.5837
6294 2 20.6583 45.9855 36.5938
6313 2 19.0664 47.6113 34.9414
6315 2 22.2167 47.6882 34.9332
6296 2 23.7965 46.0693 36.6182
6298 2 27.0111 46.1233 36.5757
6316 2 23.8616 49.3137 36.6208
6318 2 27.0318 49.3592 36.6224
6319 2 28.6739 47.6967 35.0192
6325 2 6.40896 50.8199 34.9703
6328 2 11.0362 52.4149 36.5631
6329 2 12.6801 50.7684 34.9107
6347 2 9.50745 54.0439 34.8959
6349 2 12.6329 54.0534 34.9228
6330 2 14.2991 52.498 36.5544
6331 2 15.8166 50.7366 34.9037
6332 2 17.4711 52.4148 36.5233
6334 2 20.7389 52.3574 36.5655
6335 2 22.3126 50.8109 34.9321
6353 2 19.1192 54.0157 34.9361
6355 2 22.3984 54.0059 34.9876
6338 2 26.942 52.3971 36.6366
6359 2 28.6279 53.9868 35.0237
6346 2 7.87456 55.6087 36.5083
6352 2 17.4483 55.5778 36.576
6371 2 15.8431 57.2005 34.9555
6354 2 20.7781 55.6904 36.5906
6358 2 26.8879 55.6068 36.6421
6360 2 30.2416 55.6757 36.6077
6406 2 7.94371 33.4949 39.7834
6407 2 9.54274 31.86 38.1218
6408 2 11.1533 33.5069 39.7487
6409 2 12.741 31.8395 38.0991
6614 2 9.56631 35.165 41.34
6410 2 14.2431 33.4614 39.7593
6411 2 15.9912 31.8506 38.1295
6431 2 15.9895 35.0095 38.1055
6606 2 15.9186 31.8325 41.3713
6616 2 15.8832 34.9534 41.3781
6414 2 20.7392 33.3992 39.7602
13741 2 31.7452 54.1137 25.5027
6433 2 19.0785 35.0008 38.1506
6435 2 22.3185 35.0359 38.1923
13721 2 31.7426 50.8645 25.5078
13901 2 31.7787 47.8269 28.5921
6416 2 23.9412 33.3784 39.7046
13701 2 31.7175 47.7077 25.4103
6419 2 28.6778 31.8287 38.0737
6439 2 28.6403 34.9386 38.1673
6610 2 28.6706 31.8362 41.2867
6620 2 28.6154 34.9318 41.2389
6426 2 7.93901 36.7237 39.6996
6449 2 12.6474 38.2027 38.1388
6624 2 9.64682 38.251 41.2677
6430 2 14.2713 36.6332 39.7498
6432 2 17.5415 36.6724 39.7497
6450 2 14.294 39.7548 39.7687
6452 2 17.527 39.7029 39.6744
6458 2 26.959 39.7727 39.677
6629 2 25.3354 38.1661 41.222
6440 2 30.3044 36.6214 39.7725
6459 2 28.6456 38.2177 38.1121
6465 2 6.47588 41.3939 38.1496
6485 2 6.39909 44.4767 38.0214
6633 2 6.44463 41.3569 41.2412
6643 2 6.48161 44.4561 41.276
6489 2 12.8171 44.4812 38.1766
6644 2 9.55557 44.4905 41.3231
6645 2 12.7523 44.5103 41.2822
6471 2 15.9153 41.3065 38.0528
6472 2 17.5304 42.8973 39.5987
6646 2 15.8846 44.4764 41.2419
6637 2 19.1654 41.3041 41.248
6638 2 22.2843 41.2519 41.1994
6647 2 19.1038 44.5042 41.2291
6648 2 22.3143 44.5148 41.1934
6478 2 26.9765 42.9223 39.6545
6649 2 25.4595 44.599 41.2469
6479 2 28.7132 41.286 38.0762
6499 2 28.7308 44.5451 38.1322
6640 2 28.7421 41.3853 41.2266
6650 2 28.7426 44.601 41.331
6486 2 8.03035 46.1331 39.5709
6653 2 6.448 47.7185 41.2398
6488 2 11.1516 46.1236 39.6812
6509 2 12.7673 47.6623 38.0468
6654 2 9.61701 47.6984 41.3257
6510 2 14.3136 49.1586 39.7264
6512 2 17.546 49.1969 39.7233
6656 2 15.8794 47.579 41.3168
6494 2 20.7347 46.1231 39.5965
6657 2 19.1951 47.6837 41.3134
6498 2 27.1052 46.2311 39.7522
6517 2 25.4046 47.7621 38.2559
6520 2 30.0667 49.2377 39.7513
6526 2 7.90781 52.4462 39.6045
6528 2 11.0651 52.4278 39.6519
6529 2 12.6918 50.7675 38.1064
6665 2 12.7398 50.798 41.3237
6674 2 9.4363 54.088 41.253
6675 2 12.8435 54.0043 41.283
6531 2 15.8966 50.8462 38.1641
6666 2 15.8639 50.8916 41.3107
6533 2 19.1821 50.7959 38.2102
6553 2 19.1341 53.9552 38.2012
6555 2 22.4472 53.9999 38.1741
6668 2 22.2942 50.9001 41.2303
6677 2 19.1534 53.9554 41.3246
6559 2 28.5792 54.0054 38.3099
6670 2 28.5427 50.9187 41.3818
6548 2 11.0899 55.5939 39.6239
6567 2 9.52228 57.2374 37.9799
6569 2 12.7015 57.1742 38.032
6685 2 12.8193 57.1976 41.246
6552 2 17.5014 55.5861 39.7575
6571 2 15.8014 57.1889 38.1668
6686 2 15.8799 57.1686 41.3389
6554 2 20.7692 55.6504 39.7302
6688 2 22.4643 57.1774 41.2835
6579 2 28.5838 57.1763 38.2442
13401 2 31.7993 31.8556 22.2596
13421 2 31.7987 34.9899 22.2399
13521 2 31.7547 50.892 22.2351
13541 2 31.7268 54.0536 22.3071
13821 2 31.7613 34.9431 28.571
6703 2 7.84677 33.4773 42.868
6704 2 11.1786 33.4554 42.8685
6807 2 9.48625 31.836 44.5133
6808 2 11.1516 33.4616 46.1163
6809 2 12.7345 31.8069 44.4925
6827 2 9.52995 35.0746 44.4767
6810 2 14.3074 33.4685 46.1143
6811 2 15.8593 31.8269 44.4461
6812 2 17.4477 33.4278 46.1308
6707 2 20.7222 33.3785 42.9201
6814 2 20.7062 33.3619 46.095
6833 2 19.0493 34.952 44.4722
6708 2 23.8589 33.4301 42.8666
6709 2 26.9628 33.3718 42.8672
6816 2 23.7614 33.3841 46.0647
6820 2 30.1721 33.2919 46.1579
6839 2 28.6247 34.8963 44.4915
6723 2 7.95368 39.7811 42.8608
6826 2 7.94257 36.5819 46.103
6846 2 7.9512 39.7519 46.0885
6847 2 9.62458 38.1662 44.4371
6716 2 17.4821 36.5777 42.8536
6725 2 14.2303 39.7211 42.8444
6726 2 17.3909 39.7537 42.8324
6832 2 17.4393 36.5081 46.1598
6851 2 15.7533 38.1082 44.512
6852 2 17.3911 39.7765 46.1183
6717 2 20.7152 36.5727 42.8122
6834 2 20.6722 36.5396 46.1343
6853 2 19.0718 38.1753 44.454
6854 2 20.6625 39.7086 46.0888
6718 2 23.7736 36.5401 42.856
6719 2 26.987 36.5568 42.8532
6729 2 27.0224 39.8119 42.8581
6836 2 23.7827 36.5334 46.0518
6838 2 27.003 36.5339 46.1196
6857 2 25.3619 38.2262 44.4792
6858 2 27.0057 39.8636 46.0937
6720 2 30.276 36.5773 42.8233
6730 2 30.2565 39.7357 42.8255
6840 2 30.1973 36.5196 46.1361
6859 2 28.6456 38.1954 44.5128
6734 2 11.1376 42.9245 42.9117
6867 2 9.55404 41.3835 44.5232
6869 2 12.6627 41.2905 44.584
6735 2 14.2699 42.8325 42.8922
6872 2 17.3778 42.9012 46.1164
6891 2 15.7762 44.4837 44.5057
6737 2 20.6877 42.9431 42.8757
6873 2 19.0643 41.361 44.4633
6875 2 22.3121 41.3132 44.4968
6895 2 22.3071 44.5194 44.4778
6738 2 23.9328 42.8833 42.8481
6739 2 27.0738 42.8888 42.8917
6878 2 27.0931 42.9107 46.0577
6897 2 25.521 44.6048 44.4492
6880 2 30.3112 43.0263 46.0683
6899 2 28.7223 44.6451 44.4088
6753 2 8.00682 49.2843 42.907
6905 2 6.52035 47.631 44.5543
6909 2 12.6628 47.6026 44.4862
6746 2 17.5291 46.0361 42.9324
6756 2 17.5335 49.3524 42.9271
6892 2 17.4314 46.0424 46.1453
6910 2 14.3202 49.1999 46.1264
6911 2 15.8435 47.6476 44.493
6894 2 20.6948 46.0749 46.0935
6913 2 19.108 47.7336 44.4915
6914 2 20.6753 49.425 46.1227
6915 2 22.2564 47.785 44.4009
6748 2 23.9294 46.2708 42.8052
6758 2 24.0313 49.367 42.8267
6896 2 23.9329 46.2102 46.07
6898 2 27.1269 46.3024 46.057
6916 2 23.9701 49.391 46.0357
6900 2 30.3343 46.2254 46.0568
6763 2 7.88516 52.427 42.8611
6926 2 7.93655 52.4475 46.1312
6764 2 11.1 52.3997 42.8603
6927 2 9.5891 50.7497 44.5559
6928 2 11.1221 52.4441 46.1638
6929 2 12.7563 50.7931 44.4727
6947 2 9.52445 54.0866 44.5104
6949 2 12.7953 53.9969 44.4953
6766 2 17.4897 52.4262 42.9461
6932 2 17.5484 52.4271 46.072
6934 2 20.6873 52.4843 46.1757
6935 2 22.3104 50.9759 44.4274
6953 2 19.1749 54.0681 44.4718
6955 2 22.4168 54.1245 44.5317
6768 2 24.0063 52.5307 42.8042
6957 2 25.5396 54.1463 44.5081
6940 2 30.1275 52.4649 46.0133
6959 2 28.5574 54.1057 44.3914
6946 2 7.90992 55.6385 46.2187
6774 2 11.1263 55.6618 42.8437
6967 2 9.50362 57.2299 44.487
6969 2 12.7438 57.2043 44.5515
6950 2 14.3029 55.5824 46.1708
6952 2 17.5425 55.5794 46.139
6971 2 15.9045 57.1832 44.507
6777 2 20.8127 55.6502 42.8804
6973 2 19.1835 57.2307 44.5662
6960 2 30.1767 55.7458 46.001
7006 2 7.98485 33.4507 49.2127
7029 2 12.7533 35.0427 47.7244
7011 2 15.852 31.8279 47.8191
7014 2 20.6686 33.3916 49.2635
7017 2 25.447 31.8147 47.6767
7018 2 27.07 33.3363 49.2832
7037 2 25.405 34.9841 47.7721
7028 2 11.0633 36.5628 49.2377
7049 2 12.6671 38.1624 47.5758
7032 2 17.4345 36.5507 49.3361
7050 2 14.2534 39.7215 49.2143
7051 2 15.7842 38.1116 47.6822
7034 2 20.6021 36.5854 49.2865
7055 2 22.3117 38.2175 47.7543
7057 2 25.4196 38.2006 47.7935
7040 2 30.2187 36.5775 49.3617
7059 2 28.6074 38.2375 47.786
7065 2 6.40492 41.3212 47.7634
7067 2 9.56802 41.4093 47.6763
7089 2 12.6844 44.4253 47.5709
7073 2 19.072 41.3524 47.7497
7075 2 22.2861 41.3556 47.6437
7093 2 19.1101 44.4566 47.7555
7076 2 23.9272 42.9522 49.2329
7097 2 25.5328 44.5243 47.6596
7079 2 28.692 41.3595 47.8068
7099 2 28.7218 44.5619 47.7487
7105 2 6.48454 47.6039 47.7169
7106 2 8.11576 49.2493 49.2901
7088 2 11.0909 46.0824 49.1951
7090 2 14.2784 46.0688 49.2316
7092 2 17.4106 46.0799 49.3236
7110 2 14.3257 49.1824 49.295
7112 2 17.5029 49.3222 49.3719
7113 2 19.065 47.72 47.7118
7114 2 20.6561 49.462 49.3092
7115 2 22.2723 47.7567 47.6966
7096 2 23.9577 46.1469 49.2584
7098 2 27.0833 46.1954 49.3187
7116 2 23.8988 49.4254 49.2738
7118 2 27.0263 49.3007 49.2259
7120 2 30.1488 49.2865 49.1217
7125 2 6.37334 50.7916 47.7111
7126 2 7.9812 52.465 49.2848
7128 2 11.1119 52.4651 49.2717
7129 2 12.6975 50.7835 47.6949
7130 2 14.3128 52.4979 49.364
7131 2 15.9429 50.8845 47.6933
7151 2 15.953 54.0281 47.8016
7155 2 22.4048 54.1082 47.6898
7137 2 25.5128 51.0554 47.6175
7140 2 30.1103 52.4731 49.102
7146 2 7.94078 55.6328 49.3021
7148 2 11.1408 55.6107 49.2503
7171 2 15.9135 57.1821 47.7679
7154 2 20.6465 55.5934 49.2712
7158 2 26.9549 55.705 49.1595
7160 2 30.1322 55.7775 49.1781
7206 2 8.03358 33.4195 52.454
15341 2 31.7424 54.1023 50.7993
7425 2 6.36359 35.0384 54.0054
7207 2 9.63683 31.8143 50.7957
7229 2 12.7568 34.8698 50.8472
7211 2 15.8827 31.875 50.9279
7215 2 22.3478 31.8135 50.9331
7233 2 19.0248 34.9503 50.9752
7235 2 22.2661 34.9518 50.8979
7413 2 18.9882 31.8069 54.0396
15321 2 31.7184 50.8838 50.8382
7433 2 19.0259 34.9385 53.991
7237 2 25.4317 34.9784 50.882
15301 2 31.7555 47.6215 50.7538
7437 2 25.468 34.8505 54.0255
15481 2 31.7377 44.4509 54.0451
7220 2 30.2587 33.3791 52.4724
7239 2 28.5692 34.9682 50.8917
15281 2 31.7953 44.5038 50.6982
7246 2 7.91418 39.7589 52.3294
7228 2 11.1767 36.501 52.4354
7247 2 9.46211 38.1369 50.7603
7248 2 11.1194 39.6953 52.3907
7447 2 9.51912 38.0346 54.0279
7230 2 14.3525 36.5397 52.4678
7252 2 17.4244 39.6752 52.4598
7254 2 20.6525 39.6433 52.428
7453 2 19.0353 38.0876 54.0449
7236 2 23.7881 36.6027 52.468
7256 2 23.8709 39.6889 52.4113
7457 2 25.4773 38.1557 54.0278
7240 2 30.2446 36.5695 52.4096
7459 2 28.628 38.2013 53.9511
7266 2 7.97618 42.8527 52.2978
7285 2 6.36506 44.527 50.7451
7485 2 6.404 44.5534 53.9376
7268 2 11.0671 42.894 52.3043
7269 2 12.6878 41.3208 50.7278
7469 2 12.7409 41.2465 54.0198
7487 2 9.50897 44.5351 53.9877
7489 2 12.6714 44.4662 54.0251
7270 2 14.3281 42.9269 52.3987
7271 2 15.885 41.2926 50.7671
7272 2 17.4413 42.8999 52.4411
7273 2 19.0394 41.2914 50.753
7274 2 20.6441 42.9056 52.446
7275 2 22.2511 41.294 50.7692
7295 2 22.2642 44.5521 50.8231
7475 2 22.2464 41.2705 54.0922
7493 2 19.0685 44.4826 54.0633
7276 2 23.9353 42.9672 52.4705
7277 2 25.5779 41.3338 50.8417
7280 2 30.1689 42.8881 52.3409
7479 2 28.6235 41.3453 53.9429
7305 2 6.37106 47.6568 50.8278
7306 2 7.98157 49.2621 52.5289
7288 2 11.0982 46.1061 52.3072
7308 2 11.0232 49.2395 52.4247
7509 2 12.7201 47.7426 54.082
7290 2 14.3261 46.0798 52.3683
7292 2 17.4422 46.1229 52.4157
7310 2 14.3949 49.2659 52.4295
7312 2 17.5072 49.338 52.457
7294 2 20.5941 46.1253 52.4229
7314 2 20.63 49.4198 52.4278
7315 2 22.2722 47.7083 50.8402
7515 2 22.3143 47.7183 53.9647
7316 2 23.8786 49.4143 52.3853
7318 2 27.0014 49.2782 52.4191
7300 2 30.095 46.0837 52.4178
7320 2 30.1314 49.2671 52.4936
7329 2 12.6929 50.8787 50.9021
7347 2 9.56255 54.0144 50.9838
7529 2 12.7122 50.8673 54.0206
7549 2 12.692 54.0453 53.9229
7355 2 22.2678 54.0037 50.8299
7553 2 19.1196 54.0166 53.9348
7555 2 22.2646 54.0288 53.9852
7537 2 25.4516 51.0494 53.9932
7339 2 28.5376 50.9726 50.848
7359 2 28.5399 54.0448 50.8258
7559 2 28.6304 54.0203 54.0235
7346 2 7.98163 55.6881 52.5382
7369 2 12.7336 57.1322 50.8917
7569 2 12.6918 57.1254 54.0331
7352 2 17.4084 55.613 52.4153
7356 2 23.9301 55.6339 52.3756
7358 2 26.9929 55.716 52.373
7360 2 30.1617 55.7558 52.4113
7406 2 7.98046 33.3574 55.5787
7408 2 11.1309 33.3735 55.5031
15141 2 31.7829 54.097 47.6078
7627 2 9.57536 35.0477 57.1506
7629 2 12.699 35.0298 57.126
7414 2 20.7472 33.4121 55.6782
15041 2 31.7696 38.2122 47.6896
14921 2 31.754 50.8457 44.4308
7420 2 30.2403 33.3234 55.712
7446 2 8.02903 39.7136 55.6384
7448 2 11.1485 39.6891 55.6766
7430 2 14.3427 36.589 55.549
7432 2 17.419 36.5452 55.6787
7434 2 20.6766 36.4983 55.6618
7436 2 23.804 36.4516 55.6278
7438 2 27.0609 36.5053 55.6372
7458 2 27.0637 39.8081 55.6733
7440 2 30.2292 36.5448 55.6611
7460 2 30.2575 39.8147 55.6636
7466 2 8.00656 42.8412 55.5993
7685 2 6.3878 44.5613 57.1872
7687 2 9.5869 44.5405 57.2154
7470 2 14.2495 42.8674 55.6651
7472 2 17.4086 42.8249 55.56
7673 2 19.0789 41.2438 57.1752
7675 2 22.2235 41.267 57.1725
7695 2 22.3036 44.5225 57.2302
7476 2 23.9394 42.9187 55.5639
7478 2 27.0665 42.943 55.59
7705 2 6.4086 47.8339 57.1549
7488 2 11.132 46.1138 55.6267
7707 2 9.4887 47.7581 57.1987
7490 2 14.3375 46.0922 55.6611
7492 2 17.4185 46.1601 55.6119
7512 2 17.4428 49.3268 55.5675
7494 2 20.6975 46.1543 55.6273
7514 2 20.6764 49.3358 55.5521
7496 2 23.9021 46.1207 55.5499
7498 2 27.0991 46.1103 55.5624
7516 2 23.8931 49.3464 55.6076
7518 2 27.0738 49.3073 55.572
7500 2 30.1508 46.0895 55.645
7520 2 30.1827 49.2833 55.5702
7526 2 7.89263 52.4207 55.6002
7528 2 11.0324 52.4694 55.5867
7729 2 12.6947 50.8285 57.1962
7749 2 12.6887 54.1065 57.2366
7530 2 14.3692 52.4522 55.5984
7532 2 17.4651 52.4658 55.5761
7735 2 22.2563 50.9306 57.1888
7755 2 22.3113 54.0862 57.1314
7757 2 25.4757 54.0585 57.1412
7759 2 28.6515 54.054 57.1344
7550 2 14.3894 55.664 55.596
7552 2 17.4791 55.7157 55.637
7554 2 20.601 55.6953 55.6399
7558 2 27.0681 55.7655 55.5899
13215 2 54.0238 31.695 19.1302
13207 2 41.2377 31.7332 19.1542
13015 2 54.0934 31.7206 15.9835
13013 2 50.8161 31.7048 15.9415
9396 2 55.6349 30.1836 20.7311
13007 2 41.2661 31.7952 15.8996
13005 2 38.066 31.7227 15.9148
12805 2 38.1527 31.7601 12.7826
12615 2 54.1185 31.7779 9.55655
12405 2 38.2152 31.753 6.39961
9156 2 55.6895 23.9803 17.4634
9375 2 54.0548 25.5537 19.0811
9354 2 52.5164 23.8812 20.6637
9154 2 52.3868 23.9081 17.5294
9393 2 50.9407 28.6658 19.0998
9372 2 49.3347 27.0581 20.7214
8446 2 39.7394 7.88509 8.03508
8448 2 42.8749 7.86542 7.95038
8452 2 49.224 7.90709 7.98411
8454 2 52.4491 7.9356 7.94854
8463 2 34.9545 9.41172 6.41046
8481 2 31.8195 12.7247 6.39793
8464 2 36.5303 11.0701 8.05089
8465 2 38.0684 9.47656 6.425
8485 2 38.086 12.6956 6.42993
8469 2 44.55 9.41909 6.40151
8487 2 41.3111 12.691 6.51333
8489 2 44.5162 12.7024 6.43754
8470 2 46.1883 11.0896 7.98912
8474 2 52.5446 11.1534 7.90058
8476 2 55.7548 11.0955 7.94572
8504 2 36.5327 17.4146 7.89229
8506 2 39.7173 17.4856 7.95035
8507 2 41.3578 15.8867 6.43644
8509 2 44.535 15.864 6.40684
8490 2 46.142 14.2782 8.02754
8492 2 49.3079 14.3115 7.89388
8510 2 46.1138 17.4432 8.01445
8513 2 50.9758 15.9774 6.38412
8496 2 55.7522 14.3074 7.87772
8516 2 55.7575 17.5291 7.89869
9391 2 47.7874 28.6659 19.0665
8541 2 31.8206 22.3258 6.40746
8524 2 36.5215 20.6636 7.94969
8528 2 43.0192 20.7085 7.95272
8529 2 44.6064 19.1138 6.37881
8531 2 47.7286 19.0906 6.3655
8532 2 49.4065 20.629 7.95317
8534 2 52.5053 20.6423 7.9461
8553 2 50.9062 22.3636 6.36699
8536 2 55.7236 20.711 7.96029
9390 2 46.0348 30.2627 20.6399
8562 2 33.2665 27.0755 8.05203
8563 2 34.8868 25.3877 6.36896
8546 2 39.6951 23.9611 7.87257
8550 2 46.1162 23.874 7.9497
8570 2 46.2248 27.026 7.91175
8575 2 54.0776 25.5585 6.45521
8556 2 55.698 23.8954 7.97205
8582 2 33.3207 30.2022 8.09202
8583 2 34.8872 28.6246 6.37267
8584 2 36.4723 30.2884 8.01533
8585 2 38.1766 28.6445 6.40697
8589 2 44.4952 28.6614 6.41501
8593 2 50.8349 28.6833 6.3931
8594 2 52.5093 30.2276 7.86377
8596 2 55.6902 30.1302 7.8867
9190 2 46.1366 30.2902 17.452
8648 2 42.9618 7.9586 11.2153
8652 2 49.2308 7.97935 11.0962
8655 2 54.1073 6.46612 9.58144
8661 2 31.9034 9.5349 9.54883
8662 2 33.4513 11.1007 11.1994
8681 2 31.8232 12.6741 9.53006
8683 2 34.9481 12.7721 9.53278
8664 2 36.6109 11.0665 11.1285
8666 2 39.6836 11.1255 11.1783
8667 2 41.3272 9.57518 9.59172
8669 2 44.5419 9.54491 9.60579
8687 2 41.4244 12.6963 9.5631
8691 2 47.7352 12.6623 9.64458
8673 2 50.8304 9.57786 9.54727
8674 2 52.4555 11.1094 11.1647
8693 2 50.8735 12.7085 9.50929
8695 2 54.0868 12.7484 9.51854
8676 2 55.7636 11.064 11.1049
8701 2 31.8213 15.9226 9.58141
8703 2 34.8858 15.8245 9.53363
8686 2 39.8138 14.2458 11.2191
8704 2 36.5617 17.4901 11.0843
8705 2 38.1156 15.7519 9.53423
8706 2 39.78 17.4526 11.1549
8707 2 41.4622 15.8511 9.56333
8692 2 49.393 14.347 11.2174
8710 2 46.0165 17.4957 11.2169
8711 2 47.7658 15.9188 9.62838
8694 2 52.4515 14.3771 11.2143
8714 2 52.429 17.4326 11.152
8715 2 54.0734 15.922 9.49018
8696 2 55.7207 14.2956 11.1745
9389 2 44.3955 28.5596 19.1242
8722 2 33.2789 20.7226 11.0962
8723 2 34.8468 19.0664 9.52544
8743 2 34.8674 22.3379 9.50288
8726 2 39.7851 20.6883 11.1497
8745 2 38.0878 22.2809 9.52457
8727 2 41.4193 19.0455 9.53645
8728 2 43.0078 20.6855 11.1585
8747 2 41.3775 22.3215 9.51325
8730 2 46.0605 20.6238 11.1818
8731 2 47.7484 19.039 9.55737
8732 2 49.3078 20.6315 11.1653
8751 2 47.7516 22.3068 9.5372
8734 2 52.5261 20.7096 11.1299
8735 2 54.1107 19.0411 9.55193
8753 2 50.9215 22.4308 9.54884
8736 2 55.6984 20.7484 11.1374
8762 2 33.2872 27.0254 11.1333
8744 2 36.4038 23.9263 11.1821
8746 2 39.7368 23.8802 11.1607
8764 2 36.4408 27.0811 11.1464
8765 2 38.06 25.5363 9.46275
8766 2 39.7025 27.142 11.1423
8767 2 41.3552 25.5137 9.4784
8768 2 42.9087 27.118 11.1288
8769 2 44.454 25.4875 9.52321
8750 2 46.0592 23.8988 11.1256
8772 2 49.3512 26.9984 11.0713
8774 2 52.4495 26.979 11.0729
8776 2 55.6488 27.037 11.0774
9188 2 42.9127 30.2203 17.5375
8784 2 36.4962 30.2449 11.1433
8785 2 38.1724 28.6802 9.48642
8788 2 42.9347 30.3469 11.0687
8789 2 44.5362 28.704 9.47653
8790 2 46.0975 30.3743 11.1644
8791 2 47.7479 28.6779 9.48484
8792 2 49.3064 30.266 11.1569
8795 2 54.0604 28.5985 9.49362
9385 2 38.2181 28.6697 19.1063
9384 2 36.5243 30.2701 20.6777
8842 2 33.4247 7.86868 14.3249
8846 2 39.6981 8.05184 14.374
9045 2 38.0439 6.49106 15.9014
8847 2 41.2951 6.38953 12.7297
8848 2 42.9317 7.97293 14.3779
8851 2 47.6237 6.43927 12.7484
8853 2 50.8706 6.39664 12.803
8856 2 55.6618 7.79354 14.2805
8862 2 33.4301 11.1489 14.297
8863 2 35.0759 9.42359 12.7317
9061 2 31.8241 9.56933 15.936
9083 2 35.073 12.7303 15.9484
8885 2 38.1416 12.6894 12.8715
9085 2 38.161 12.6431 15.9039
8867 2 41.3414 9.62975 12.7901
8889 2 44.5355 12.7074 12.7141
9069 2 44.4785 9.63295 15.9275
8871 2 47.5717 9.56412 12.7305
8872 2 49.2837 11.1566 14.2685
8891 2 47.612 12.7521 12.7475
9071 2 47.6444 9.54844 15.8931
8875 2 54.0341 9.43187 12.69
8895 2 54.0604 12.7326 12.8013
9073 2 50.8133 9.48803 15.8645
9075 2 54.0248 9.49727 15.8317
9093 2 50.9218 12.7616 15.8468
9095 2 54.0671 12.8259 15.8817
8876 2 55.7468 11.097 14.2638
8882 2 33.3372 14.2792 14.339
8902 2 33.2996 17.3844 14.3558
8903 2 34.9623 15.8404 12.6961
8905 2 38.1036 15.8165 12.7972
8906 2 39.8314 17.4712 14.3377
9105 2 38.129 15.8103 15.8971
8888 2 42.9331 14.2783 14.2913
9107 2 41.4198 15.9191 15.9069
9109 2 44.5568 16.0114 15.8511
8911 2 47.688 15.9017 12.8227
9113 2 50.957 15.896 15.8505
9117 2 57.2282 15.8584 15.8495
9382 2 33.4257 30.1913 20.6424
8923 2 34.896 19.0776 12.7146
9182 2 33.4164 30.2381 17.5086
9123 2 34.939 19.0757 15.8904
9143 2 34.989 22.3654 15.9071
8924 2 36.508 20.7268 14.3077
8925 2 38.1405 19.0999 12.7584
8945 2 38.1092 22.2936 12.7653
9125 2 38.1855 19.0864 15.8983
9145 2 38.1579 22.346 15.9419
8927 2 41.4497 19.085 12.802
8949 2 44.4691 22.3301 12.8418
9147 2 41.453 22.293 15.9116
8930 2 46.0538 20.6419 14.4006
8932 2 49.2495 20.7095 14.3919
8951 2 47.6718 22.3261 12.7713
9131 2 47.6473 19.0745 15.9742
8933 2 50.8894 19.0263 12.8147
8935 2 54.0909 19.022 12.7731
8953 2 50.9039 22.3243 12.7174
9133 2 50.9093 19.0495 15.9032
9135 2 54.0398 19.0017 15.884
9155 2 54.0477 22.322 15.8626
8936 2 55.7066 20.7735 14.2576
9137 2 57.2251 19.0069 15.8338
8942 2 33.3441 23.9765 14.314
8946 2 39.7859 23.9398 14.4068
8964 2 36.5359 27.1049 14.4146
8965 2 38.1007 25.5067 12.8136
8967 2 41.3507 25.4676 12.7556
8968 2 42.9099 27.0175 14.3457
9169 2 44.4834 25.3792 15.9124
8952 2 49.2886 23.9003 14.4548
8971 2 47.6337 25.476 12.7609
8972 2 49.2845 27.0044 14.4098
8954 2 52.4172 23.9303 14.3738
8974 2 52.5116 27.0219 14.3772
8975 2 54.1151 25.353 12.6999
8976 2 55.624 27.0302 14.3713
8982 2 33.3275 30.2394 14.3674
8983 2 34.8649 28.6649 12.7817
8987 2 41.2434 28.7248 12.7709
8988 2 42.9756 30.3139 14.3086
8989 2 44.5927 28.6552 12.7487
9187 2 41.2226 28.601 15.9808
9189 2 44.5522 28.6151 15.8899
8991 2 47.6568 28.6649 12.8033
8993 2 50.8875 28.6521 12.7407
8994 2 52.5495 30.1777 14.2801
9193 2 50.8587 28.6378 16.0337
8996 2 55.6793 30.2094 14.2715
9197 2 57.2308 28.5776 15.988
9042 2 33.481 7.9271 17.479
9241 2 31.816 6.40429 19.1491
9244 2 36.5162 7.94385 20.6464
9050 2 46.0869 7.93562 17.5069
9250 2 46.129 7.88154 20.6092
9054 2 52.4644 7.8649 17.4607
9254 2 52.3728 7.87279 20.7621
9056 2 55.7094 7.82136 17.4908
9062 2 33.4384 11.1469 17.5205
9263 2 35.0042 9.59475 19.1352
9376 2 55.6702 27.0897 20.6334
9265 2 38.181 9.57112 19.02
9285 2 38.078 12.6489 19.0711
9267 2 41.2947 9.51391 18.9899
9268 2 42.8948 11.1577 20.5519
9291 2 47.6771 12.5907 19.0618
9074 2 52.4719 11.1469 17.5148
9273 2 50.7131 9.50083 19.0777
9274 2 52.4 11.1443 20.7205
9275 2 54.0652 9.45428 19.122
9293 2 50.8166 12.7259 19.1023
9076 2 55.6866 11.1164 17.5097
9276 2 55.6295 11.1781 20.6242
9102 2 33.3865 17.4052 17.5123
9282 2 33.3672 14.2925 20.6798
9086 2 39.8249 14.25 17.5283
9104 2 36.527 17.4355 17.5533
9106 2 39.8173 17.5292 17.5715
9286 2 39.7011 14.2674 20.7235
9305 2 38.0687 15.8286 19.1429
9306 2 39.7167 17.549 20.6927
9088 2 42.9371 14.1864 17.4774
9288 2 42.8582 14.3218 20.6135
9308 2 42.8855 17.5673 20.659
9309 2 44.5113 16.02 19.0032
9090 2 46.0754 14.2346 17.3877
9092 2 49.2025 14.2948 17.3879
9112 2 49.2678 17.5125 17.5093
9290 2 46.0554 14.3461 20.6393
9311 2 47.6367 15.9297 19.0589
9312 2 49.2688 17.5246 20.623
9313 2 50.9377 15.8187 19.0454
9314 2 52.536 17.4234 20.6389
9316 2 55.6727 17.3618 20.6723
9122 2 33.3316 20.7079 17.5154
9322 2 33.3962 20.6837 20.7746
9323 2 34.9782 19.0359 19.2274
9343 2 35.0162 22.3186 19.1427
9124 2 36.6352 20.6884 17.6027
9126 2 39.8157 20.6662 17.5764
9326 2 39.7599 20.6576 20.6923
9128 2 43.0509 20.6304 17.5109
9347 2 41.4834 22.3273 19.1486
9332 2 49.2483 20.6928 20.5235
9134 2 52.4053 20.751 17.5414
9335 2 54.0501 19.0603 19.0397
9136 2 55.6643 20.773 17.4774
9336 2 55.6322 20.7836 20.6775
9142 2 33.3432 23.9506 17.4465
9162 2 33.3927 27.1415 17.4133
9342 2 33.4024 23.933 20.8066
9363 2 34.9867 25.5612 19.1482
9146 2 39.8083 23.9667 17.5485
9164 2 36.5663 27.1355 17.4393
9344 2 36.5565 23.8938 20.8047
9346 2 39.791 23.9207 20.7206
9365 2 38.1688 25.5693 19.1494
9150 2 46.0946 23.754 17.4935
9170 2 46.1395 27.0091 17.4645
9350 2 46.0396 23.8863 20.6221
9352 2 49.3043 23.8716 20.6193
9370 2 46.0485 26.9639 20.7074
9371 2 47.764 25.4305 19.0083
9443 2 34.8836 6.43376 22.32
9445 2 38.1179 6.40806 22.3047
9447 2 41.2694 6.39802 22.2314
9448 2 42.9235 7.9001 23.8541
9454 2 52.3321 7.96883 23.8119
9483 2 34.9385 12.6744 22.2278
9464 2 36.4766 11.1031 23.8285
9465 2 38.1382 9.5352 22.2113
9466 2 39.6593 11.2612 23.8321
9467 2 41.2445 9.49998 22.1687
9468 2 42.8454 11.1784 23.844
9469 2 44.5124 9.48785 22.1883
9489 2 44.5039 12.7042 22.2101
9470 2 46.129 11.0798 23.8683
9471 2 47.7144 9.45668 22.2251
9472 2 49.3363 11.0455 23.8724
9491 2 47.727 12.6559 22.1635
9475 2 54.0649 9.5184 22.3019
9495 2 54.0268 12.8498 22.2984
9476 2 55.619 11.2465 23.9248
9477 2 57.2087 9.53315 22.229
9497 2 57.196 12.8174 22.2424
9482 2 33.284 14.2782 23.8079
9503 2 35.0008 15.9234 22.2883
9486 2 39.6045 14.3485 23.8796
9488 2 42.8305 14.3618 23.8699
9507 2 41.2349 15.9693 22.3065
9508 2 42.8207 17.5782 23.8819
9490 2 46.0873 14.3976 23.7882
9492 2 49.3015 14.2954 23.8195
9512 2 49.2673 17.4746 23.8202
9513 2 50.9573 15.7986 22.2261
9514 2 52.5687 17.4237 23.8674
9523 2 34.9948 19.0297 22.3625
9525 2 38.0979 19.1016 22.3763
9545 2 38.1655 22.2733 22.4315
9529 2 44.5052 19.1585 22.2326
9547 2 41.3479 22.2643 22.3368
9549 2 44.4376 22.29 22.2314
9530 2 46.0803 20.7562 23.9001
9531 2 47.6112 19.1166 22.2295
9551 2 47.639 22.2989 22.2651
9533 2 50.8919 19.1408 22.233
9534 2 52.5268 20.7555 23.8549
9535 2 54.1091 19.0826 22.2651
9553 2 50.8696 22.2828 22.2582
9536 2 55.6939 20.7763 23.8633
9542 2 33.4187 23.9143 23.8498
9565 2 38.1673 25.5007 22.3985
9548 2 42.8577 23.9739 23.8928
9568 2 42.882 26.978 23.8324
9552 2 49.2033 23.9803 23.9099
9572 2 49.3273 27.076 23.94
9554 2 52.5788 23.9987 23.8757
9573 2 50.9736 25.5472 22.2863
9582 2 33.4651 30.1597 23.8398
9584 2 36.5072 30.1402 23.8457
9585 2 38.1734 28.5265 22.2343
9586 2 39.7541 30.1689 23.7838
9589 2 44.4301 28.6471 22.3001
9591 2 47.6443 28.6489 22.3358
9592 2 49.3947 30.2113 23.9044
9595 2 54.0011 28.6315 22.3708
9643 2 34.8347 6.37564 25.4406
9644 2 36.4905 7.94284 27.0337
9646 2 39.671 7.90468 27.0867
9648 2 42.8985 7.99584 27.145
9649 2 44.641 6.38331 25.502
9847 2 41.3095 6.39699 28.8131
9849 2 44.5435 6.40958 28.7514
9851 2 47.6112 6.47251 28.6733
9653 2 50.7301 6.39198 25.4313
9654 2 52.3792 7.96445 27.06
9656 2 55.668 7.94982 27.1026
9683 2 34.8575 12.6583 25.4589
9883 2 34.9376 12.673 28.586
9665 2 38.0604 9.51687 25.4185
9666 2 39.6785 11.1705 27.052
9865 2 38.0335 9.54037 28.721
9885 2 38.0386 12.7174 28.6941
9667 2 41.2594 9.52017 25.4355
9668 2 42.8777 11.1048 27.1384
9669 2 44.5824 9.52037 25.5187
9689 2 44.5262 12.7585 25.5327
9887 2 41.3068 12.7422 28.7192
9889 2 44.5172 12.7214 28.7153
9672 2 49.2017 11.0877 27.0905
9691 2 47.6446 12.7198 25.5113
9674 2 52.4804 11.1772 27.1248
9675 2 54.0134 9.56464 25.4261
9693 2 50.9658 12.7305 25.4452
9873 2 50.7369 9.49202 28.6626
9676 2 55.6284 11.2367 27.1031
9677 2 57.226 9.51539 25.4726
9703 2 34.9115 15.9668 25.4298
9903 2 34.944 15.9262 28.5917
9684 2 36.5557 14.341 26.966
9686 2 39.6986 14.4094 26.9902
9706 2 39.7591 17.5825 27.0574
9905 2 38.072 16.0154 28.6809
9688 2 42.8101 14.41 27.0675
9709 2 44.5086 16.0119 25.5153
9909 2 44.493 16.04 28.6753
9692 2 49.2806 14.2565 27.1439
9711 2 47.644 15.9658 25.5213
9911 2 47.6655 16.0072 28.6863
9713 2 50.9608 15.8865 25.5218
9913 2 50.8991 15.9068 28.6572
9915 2 54.0553 15.7836 28.6311
9716 2 55.717 17.4416 27.02
9917 2 57.2275 15.7971 28.6575
9722 2 33.4103 20.652 27.0157
9743 2 35.0498 22.2451 25.4377
9923 2 35.0222 19.0499 28.5827
10591 2 47.7642 28.6477 38.1538
9725 2 38.0811 19.1256 25.4215
9726 2 39.7561 20.6836 27.018
9945 2 38.2234 22.3079 28.6455
9729 2 44.4508 19.1495 25.5191
9749 2 44.4576 22.3277 25.4892
9929 2 44.4074 19.0989 28.6052
9947 2 41.3161 22.3042 28.6574
9949 2 44.4072 22.282 28.5543
9731 2 47.6691 19.123 25.5019
9931 2 47.7049 19.0939 28.6265
9951 2 47.6952 22.2881 28.585
9733 2 50.8291 19.1039 25.5059
9734 2 52.4672 20.7301 27.0747
9735 2 54.1316 19.0826 25.4875
9753 2 50.857 22.33 25.4787
9755 2 54.16 22.4278 25.5351
9933 2 50.8042 19.1023 28.6827
9935 2 54.0486 19.0932 28.6451
9953 2 50.8503 22.3242 28.7047
9955 2 54.0472 22.3747 28.6468
9742 2 33.383 23.8894 27.1071
10590 2 46.0682 30.2342 39.7543
9763 2 35.0013 25.5724 25.44
10695 2 44.4519 28.5167 41.2802
9963 2 34.8903 25.5471 28.6554
9744 2 36.6421 23.9189 27.0387
9768 2 42.9673 27.0021 26.9186
9967 2 41.2589 25.3434 28.5448
9969 2 44.5094 25.41 28.5249
9752 2 49.2695 23.988 26.9887
9971 2 47.6314 25.5262 28.5526
9774 2 52.4896 27.057 26.9927
9975 2 54.0911 25.5167 28.6187
9781 2 31.8411 28.5936 25.5719
10694 2 41.3077 28.5529 41.3212
9985 2 38.106 28.6243 28.4794
9787 2 41.2906 28.6024 25.4229
9987 2 41.2512 28.6056 28.507
9791 2 47.6274 28.6471 25.5108
9795 2 54.1052 28.6658 25.424
9993 2 50.9188 28.6803 28.5523
10588 2 42.873 30.2307 39.6574
9842 2 33.4098 8.06193 30.1441
10043 2 34.9958 6.43273 31.8255
10045 2 38.1181 6.39782 31.8152
10046 2 39.7009 8.03002 33.3245
10050 2 45.9302 7.9775 33.441
10051 2 47.6298 6.40337 31.8193
9854 2 52.3342 7.93487 30.2633
10054 2 52.3483 7.93328 33.3839
9856 2 55.6561 7.97069 30.1822
9862 2 33.3877 11.1194 30.2344
10586 2 39.7165 30.2385 39.689
9866 2 39.7483 11.0791 30.3302
10066 2 39.7425 11.1805 33.3866
10085 2 37.9974 12.7386 31.8309
10069 2 44.4071 9.63162 31.8135
10089 2 44.4582 12.7178 31.9471
9872 2 49.226 11.1875 30.2386
10071 2 47.5813 9.54155 31.8083
10072 2 49.2182 11.1641 33.4139
10091 2 47.5816 12.7535 31.9346
9874 2 52.3947 11.1919 30.2361
10075 2 54.0482 9.60437 31.8856
10095 2 54.0305 12.8188 31.8478
9876 2 55.6481 11.2102 30.1497
9882 2 33.3125 14.2484 30.2574
9902 2 33.3105 17.4534 30.2062
10103 2 34.9596 15.8971 31.8745
9886 2 39.7671 14.4051 30.2891
10086 2 39.7502 14.3371 33.4322
10105 2 38.023 15.967 31.8032
10106 2 39.6704 17.4941 33.3826
9888 2 42.8692 14.4369 30.3524
9890 2 46.0762 14.4029 30.3468
9892 2 49.2845 14.3226 30.3319
9914 2 52.4617 17.3992 30.3132
9916 2 55.6934 17.4577 30.2871
10116 2 55.7123 17.4886 33.4055
9922 2 33.3458 20.7415 30.2248
10584 2 36.6092 30.2841 39.6818
10123 2 34.9434 19.0603 31.8903
10143 2 34.8327 22.3325 31.8681
9924 2 36.6063 20.7031 30.2527
10124 2 36.5503 20.7358 33.4379
10127 2 41.2331 19.1042 31.7165
10128 2 42.82 20.6898 33.3449
10129 2 44.4197 18.9727 31.7664
10149 2 44.4183 22.3029 31.7633
9930 2 46.0744 20.6493 30.2155
10130 2 46.0734 20.6559 33.3762
10132 2 49.2208 20.7125 33.3732
10151 2 47.6819 22.3271 31.7642
10133 2 50.7905 19.035 31.8026
10134 2 52.4413 20.7093 33.4157
10135 2 54.0073 19.0803 31.8476
10155 2 54.0146 22.3804 31.831
9936 2 55.7203 20.6932 30.262
10136 2 55.6818 20.6759 33.4628
10692 2 34.9521 28.586 41.3199
10162 2 33.3782 26.9468 33.3134
9944 2 36.5297 23.892 30.2295
9964 2 36.4865 27.0951 30.2532
9966 2 39.6619 26.9876 30.1844
10144 2 36.4847 23.866 33.4283
10165 2 38.1505 25.4585 31.865
9968 2 42.8923 26.9439 30.188
10148 2 42.8198 23.9467 33.3504
9950 2 46.0609 23.9316 30.2342
9972 2 49.3032 27.0187 30.1573
10152 2 49.2284 23.9095 33.4031
10172 2 49.3013 27.015 33.4182
10173 2 50.9799 25.4537 31.7959
10175 2 54.0639 25.5336 31.8695
9956 2 55.7277 23.9478 30.2487
9982 2 33.364 30.1366 30.1583
9984 2 36.4967 30.1516 30.239
9988 2 42.9649 30.138 30.1097
10187 2 41.2226 28.5679 31.8132
10188 2 42.8324 30.132 33.3983
10189 2 44.5241 28.4839 31.805
9990 2 46.1042 30.1557 30.0831
9992 2 49.2916 30.2378 30.1635
10190 2 46.1605 30.2453 33.3788
10191 2 47.6701 28.5546 31.778
10192 2 49.3323 30.259 33.4697
10193 2 51.0005 28.6409 31.8071
10195 2 54.0564 28.614 31.8221
10197 2 57.0723 28.6288 31.7592
10582 2 33.4665 30.2299 39.6702
10247 2 41.2742 6.44685 34.9458
10248 2 42.9994 7.96862 36.5504
10251 2 47.6909 6.37566 34.9731
10252 2 49.2545 7.88623 36.7342
10255 2 53.9703 6.38321 35.1192
10257 2 57.1164 6.45497 35.0646
10263 2 34.9351 9.54186 34.9628
10281 2 31.8129 12.6961 34.9567
10283 2 34.9428 12.6651 34.9502
10265 2 38.0282 9.5487 35.013
10266 2 39.6851 11.237 36.6143
10285 2 37.9814 12.7545 35.0159
10267 2 41.3682 9.61673 34.9749
10271 2 47.5589 9.55434 35.0552
10272 2 49.2269 11.1554 36.6476
10273 2 50.8116 9.51231 35.019
10274 2 52.3912 11.1034 36.6765
10275 2 54.0269 9.51927 34.9966
10293 2 50.7926 12.8035 34.9459
10295 2 53.9892 12.7384 34.8879
10276 2 55.6217 11.088 36.607
10297 2 57.1805 12.7454 34.9009
10282 2 33.3883 14.2788 36.5989
10581 2 31.8871 28.5927 37.9708
10303 2 34.927 15.8919 34.9385
10286 2 39.7097 14.3461 36.624
10304 2 36.5225 17.4731 36.573
10307 2 41.3856 15.9412 35.0303
10309 2 44.4487 15.8241 34.955
10310 2 46.059 17.4626 36.5873
10312 2 49.2308 17.388 36.5432
10294 2 52.3311 14.3637 36.5953
10314 2 52.4374 17.5021 36.5592
10315 2 54.0147 15.9178 34.9044
10296 2 55.6558 14.3604 36.5281
10322 2 33.3825 20.6792 36.4674
10325 2 38.1452 19.1395 35.0237
10327 2 41.2697 19.0794 35.0468
10329 2 44.4155 19.0245 34.9952
10347 2 41.2425 22.2412 34.9719
10349 2 44.4441 22.2654 35.0183
10331 2 47.6134 19.0056 34.939
10332 2 49.167 20.7316 36.6041
10333 2 50.8189 19.0329 34.9373
10334 2 52.5128 20.7132 36.6477
10353 2 50.8974 22.3602 35.0254
10355 2 54.0549 22.3659 35.0039
10344 2 36.5204 23.8636 36.5031
10346 2 39.703 23.8541 36.5157
10364 2 36.5092 27.0932 36.5288
10365 2 38.169 25.5469 34.9011
10368 2 42.8372 27.0416 36.5152
10350 2 46.1183 23.8867 36.5351
10352 2 49.1749 23.8945 36.603
10370 2 46.0774 26.9746 36.5838
10373 2 50.974 25.5138 35.0463
10356 2 55.576 23.9163 36.5825
10381 2 31.8198 28.6489 34.8913
10383 2 34.9229 28.6682 34.894
10384 2 36.5344 30.2187 36.5851
10389 2 44.4682 28.5473 34.9442
10390 2 46.0579 30.2082 36.6232
10391 2 47.7404 28.6016 35.0359
10396 2 55.5047 30.109 36.5127
10442 2 33.4994 7.94614 39.6607
10689 2 57.1273 25.3811 41.3931
10445 2 38.0728 6.43458 38.0443
10446 2 39.7626 7.95473 39.6739
10623 2 38.166 6.41795 41.3118
10448 2 42.9718 7.915 39.7451
10455 2 53.9324 6.39859 38.2314
10461 2 31.8441 9.53211 37.9989
10462 2 33.456 11.1916 39.6698
10631 2 31.8117 9.55838 41.371
10632 2 35.0743 9.58103 41.3143
10633 2 38.133 9.5815 41.3012
10643 2 38.143 12.6453 41.2037
10467 2 41.3304 9.60845 38.1068
10468 2 42.9759 11.1833 39.7028
10469 2 44.5979 9.5955 38.1413
10634 2 41.2912 9.58581 41.3367
10644 2 41.3266 12.7391 41.2634
10645 2 44.5674 12.7467 41.34
10471 2 47.5884 9.48083 38.2603
10472 2 49.2527 11.0314 39.8382
10491 2 47.5251 12.695 38.1748
10474 2 52.4094 11.0135 39.7599
10495 2 54.0236 12.7648 38.2365
10638 2 54.0265 9.38536 41.3558
10647 2 50.8942 12.67 41.3954
10476 2 55.6024 11.0726 39.8539
10477 2 57.2209 9.48928 38.2862
10482 2 33.3773 14.1968 39.7124
10577 2 57.1108 25.4365 38.2089
10502 2 33.4221 17.4846 39.6868
10576 2 55.5315 27.1455 39.7126
10652 2 34.9681 15.7868 41.2771
10504 2 36.5094 17.4891 39.6355
10653 2 38.1724 15.8326 41.1771
10508 2 42.9361 17.5136 39.6506
10509 2 44.4571 15.7876 38.1142
10654 2 41.3327 15.8251 41.2006
10492 2 49.2538 14.2209 39.7373
10511 2 47.6077 15.8247 38.1736
10656 2 47.5847 15.8748 41.296
10514 2 52.5112 17.5393 39.7389
10515 2 54.0805 15.9191 38.1808
10657 2 50.9097 15.8268 41.314
10658 2 54.0786 15.8281 41.3594
10516 2 55.6467 17.6386 39.7815
10522 2 33.4025 20.7074 39.7139
10543 2 34.9662 22.2756 38.099
10688 2 54.066 25.4675 41.2973
10525 2 38.1736 19.1633 38.123
10663 2 38.1844 19.1448 41.2175
10528 2 42.9707 20.6207 39.7305
10547 2 41.3474 22.2461 38.1225
10549 2 44.4976 22.2528 38.1472
10664 2 41.2471 19.1151 41.2537
10674 2 41.3069 22.3182 41.3769
10532 2 49.1802 20.7271 39.6629
10666 2 47.5717 19.0443 41.2763
10676 2 47.5152 22.2801 41.3215
10533 2 50.83 19.0966 38.1792
10667 2 50.8712 19.1089 41.2898
10677 2 50.9053 22.3239 41.2684
10678 2 54.1055 22.3348 41.3004
10536 2 55.6681 20.7062 39.7196
10681 2 31.9154 25.4522 41.2081
10682 2 34.9786 25.4965 41.2648
10544 2 36.5971 23.8187 39.7186
10546 2 39.7337 23.854 39.771
10564 2 36.5914 27.1305 39.6469
10565 2 38.2079 25.5369 38.1105
10683 2 38.2294 25.5324 41.3689
10567 2 41.3396 25.4848 38.1795
10569 2 44.4536 25.412 38.2446
10685 2 44.4732 25.3666 41.3227
10552 2 49.1818 23.9123 39.6949
10572 2 49.2765 27.1005 39.7652
10573 2 50.9507 25.5452 38.1298
10687 2 50.8921 25.5319 41.3057
13411 2 47.6901 31.7518 22.2406
13803 2 34.9615 31.7138 28.5596
13605 2 38.1273 31.6967 25.4728
13807 2 41.2826 31.7156 28.6097
13811 2 47.7042 31.7645 28.4944
13815 2 54.1247 31.6938 28.5765
13617 2 57.1867 31.6949 25.4606
13817 2 57.2025 31.744 28.6225
14005 2 38.1043 31.7479 31.8194
14007 2 41.2261 31.7706 31.7258
14015 2 54.0391 31.68 31.8061
14205 2 38.1041 31.7533 34.9535
14207 2 41.1921 31.6964 35.0514
14209 2 44.4682 31.7566 34.979
14411 2 47.8284 31.7917 38.1728
14415 2 53.9159 31.7141 38.1524
14608 2 54.0748 31.7957 41.2383
14417 2 57.0836 31.7852 38.2407
10721 2 33.4035 7.97514 42.9523
10842 2 33.3705 8.00494 46.1368
10843 2 35.0028 6.3842 44.495
10844 2 36.5337 7.99476 46.1402
10845 2 38.2186 6.40291 44.4111
10846 2 39.8393 7.96111 46.1261
10724 2 43.037 7.97697 42.9205
10848 2 43.0245 7.96081 46.1215
10726 2 49.1844 7.90814 42.824
10852 2 49.2357 7.87339 46.08
10854 2 52.4815 7.97272 46.1399
10728 2 55.7122 7.87759 42.918
10856 2 55.6756 7.92965 46.1179
10883 2 34.9264 12.605 44.48
10865 2 38.1773 9.59203 44.4422
10734 2 42.9915 11.0933 42.9691
10868 2 42.9179 11.0029 46.0349
10870 2 46.115 11.0094 45.9744
10737 2 52.4957 11.0712 42.9516
10873 2 50.8079 9.52705 44.4719
10874 2 52.4864 11.0787 46.177
10895 2 54.1554 12.6409 44.5702
10751 2 33.3798 17.4416 42.8563
10882 2 33.2794 14.243 46.0828
10742 2 36.5314 14.2069 42.8967
10743 2 39.7466 14.2298 42.9497
10752 2 36.5279 17.5093 42.8893
10753 2 39.733 17.4667 42.9134
10886 2 39.7508 14.2961 46.069
10904 2 36.5819 17.4761 46.1046
10905 2 38.1016 15.8451 44.5117
10906 2 39.7582 17.469 46.1579
10754 2 42.9549 17.4621 42.8074
10888 2 42.859 14.219 46.0198
10908 2 42.8388 17.4538 46.0987
10909 2 44.536 15.8058 44.3695
10746 2 49.2682 14.1796 42.9723
10756 2 49.3054 17.4378 42.9241
10890 2 46.1239 14.1539 46.0074
10910 2 46.1057 17.4489 46.089
10911 2 47.7069 15.8326 44.4813
10757 2 52.5358 17.4558 42.9644
10894 2 52.4671 14.2062 46.0841
10914 2 52.5089 17.449 46.0985
10748 2 55.6807 14.2777 43.0251
10916 2 55.7636 17.4798 46.0867
10923 2 34.8863 19.109 44.5197
10943 2 34.9399 22.2366 44.4991
10762 2 36.599 20.7209 42.8553
10924 2 36.652 20.6979 46.0654
10926 2 39.7681 20.7438 46.0686
10764 2 42.9934 20.7724 42.8872
10927 2 41.3247 19.1433 44.4564
10928 2 42.9354 20.8057 46.0828
10929 2 44.5758 19.127 44.4521
10766 2 49.2336 20.7318 42.9354
10931 2 47.642 19.0941 44.4949
10932 2 49.2902 20.7102 46.1393
10767 2 52.5574 20.7196 42.9368
10933 2 50.9082 19.0943 44.5748
10935 2 54.1787 19.1699 44.5378
10953 2 50.9453 22.3366 44.601
10957 2 57.1079 22.2484 44.5476
10771 2 33.4184 23.825 42.8447
10942 2 33.4032 23.9398 46.119
10962 2 33.3902 27.062 46.186
10772 2 36.6398 23.8449 42.909
10944 2 36.6499 23.919 46.0162
10966 2 39.8182 26.9537 46.088
10968 2 42.8557 26.9762 46.14
10969 2 44.4699 25.377 44.4665
10776 2 49.1633 23.9468 42.9584
10785 2 46.2109 26.9899 42.8986
10950 2 46.1019 23.829 46.0759
10952 2 49.2187 23.9617 46.1447
10777 2 52.507 23.9097 42.9761
10787 2 52.5032 27.1558 42.8902
10973 2 50.8658 25.5675 44.5876
10975 2 54.113 25.5061 44.5993
10982 2 33.3741 30.2177 46.201
10983 2 34.9941 28.5881 44.4389
10792 2 36.6188 30.2595 42.795
10984 2 36.5319 30.2115 46.1121
10985 2 38.202 28.5963 44.4536
10987 2 41.3021 28.6297 44.3975
10988 2 42.8933 30.1344 46.1511
10989 2 44.4884 28.5403 44.4549
10795 2 46.1655 30.1615 42.8224
10990 2 46.1835 30.0929 46.087
10797 2 52.5196 30.1782 42.8491
10993 2 50.7625 28.6214 44.5104
10994 2 52.528 30.1658 46.0324
10996 2 55.7158 30.2104 46.0492
11044 2 36.52 7.96267 49.2599
11054 2 52.501 7.97368 49.2464
11062 2 33.3332 11.1247 49.231
11083 2 34.9511 12.6939 47.5965
11064 2 36.5142 11.1082 49.2963
11065 2 38.2387 9.599 47.681
11085 2 38.1407 12.6865 47.6311
11068 2 42.9088 10.9867 49.2864
11087 2 41.2293 12.615 47.7025
11089 2 44.5327 12.5843 47.6866
11071 2 47.6593 9.43301 47.6929
11072 2 49.3617 11.0195 49.2656
11091 2 47.7932 12.6144 47.6453
11102 2 33.2721 17.4606 49.28
11103 2 34.8874 15.8672 47.6567
11084 2 36.5254 14.3499 49.3007
11104 2 36.592 17.4405 49.3518
11088 2 42.8357 14.258 49.3108
11108 2 42.7893 17.5037 49.3014
11109 2 44.4959 15.8374 47.691
11090 2 46.1629 14.2093 49.345
11110 2 46.1615 17.4488 49.351
11111 2 47.8084 15.7957 47.6579
11112 2 49.3405 17.4341 49.3606
11094 2 52.528 14.2491 49.2531
11113 2 50.8507 15.8117 47.6743
11114 2 52.5162 17.4887 49.3457
11115 2 54.1392 15.8462 47.6579
11096 2 55.7452 14.3146 49.2939
11116 2 55.716 17.4692 49.3296
11122 2 33.2889 20.6701 49.3373
11123 2 34.9333 19.0951 47.6925
11143 2 35.0029 22.3052 47.7723
11125 2 38.2102 19.1294 47.8268
11145 2 38.2247 22.3348 47.7946
11128 2 42.8588 20.7145 49.3181
11129 2 44.5225 19.1266 47.686
11147 2 41.3253 22.4213 47.7151
11130 2 46.1102 20.7318 49.3573
11131 2 47.7479 19.0918 47.7185
11151 2 47.6862 22.3121 47.7941
11134 2 52.5469 20.7184 49.331
11135 2 54.1476 19.1857 47.6906
11153 2 50.8941 22.3074 47.7332
11162 2 33.3944 27.0501 49.3322
11163 2 35.0688 25.4773 47.7856
11165 2 38.2155 25.4606 47.772
11169 2 44.4545 25.373 47.7148
11170 2 46.1642 26.9873 49.1914
11154 2 52.5293 23.8816 49.238
11174 2 52.4031 27.0369 49.2105
11177 2 57.0981 25.4864 47.7078
11182 2 33.3816 30.2294 49.2594
11184 2 36.5482 30.1836 49.3311
11185 2 38.1678 28.5428 47.7088
11186 2 39.8066 30.1882 49.3213
11190 2 46.2102 30.0982 49.1709
11192 2 49.3492 30.0891 49.2384
11195 2 54.0979 28.581 47.677
11196 2 55.7841 30.2406 49.3168
11443 2 34.9435 6.42125 54.1386
11244 2 36.547 8.05256 52.4935
11245 2 38.1927 6.45685 50.8986
11445 2 38.1117 6.44446 54.1186
11248 2 42.9603 7.93902 52.3432
11250 2 46.149 7.97066 52.3449
11252 2 49.2986 7.95339 52.3903
11451 2 47.8002 6.3782 54.1124
11253 2 50.9682 6.36947 50.8998
11262 2 33.3193 11.132 52.5454
11263 2 34.8869 9.52316 50.9075
11483 2 34.9575 12.7256 54.098
11266 2 39.7462 11.1043 52.4209
11285 2 38.1675 12.7095 50.8228
11485 2 38.1145 12.7887 54.0626
11268 2 42.9319 11.0648 52.3585
11467 2 41.2813 9.45933 54.011
11489 2 44.5638 12.6423 54.0063
11270 2 46.143 11.0354 52.3345
11272 2 49.2869 11.0274 52.3727
11491 2 47.7812 12.7159 54.0049
11275 2 54.1322 9.5262 50.8575
11293 2 50.9296 12.6741 50.8386
11295 2 54.1275 12.6338 50.8579
11473 2 51.0045 9.47889 54.0125
11475 2 54.1104 9.48273 54.0079
11493 2 50.9545 12.7225 54.0473
11495 2 54.1123 12.7526 54.0798
11276 2 55.8005 11.1296 52.5192
11282 2 33.3283 14.3006 52.4444
11302 2 33.2893 17.4898 52.5115
11503 2 34.9722 15.9617 54.1392
11284 2 36.5322 14.3972 52.4053
11286 2 39.7307 14.3719 52.4058
11306 2 39.7006 17.5294 52.389
11288 2 42.8667 14.2474 52.4112
11309 2 44.4839 15.9358 50.9367
11507 2 41.3348 15.9631 54.0344
11290 2 46.1774 14.3228 52.4098
11294 2 52.5237 14.3563 52.4052
11314 2 52.4942 17.4845 52.4502
11513 2 50.8226 15.8789 54.08
11515 2 54.1914 15.8542 54.0849
11322 2 33.3055 20.6941 52.5478
11323 2 35.0088 19.0991 50.9549
11343 2 35.0165 22.2806 50.8806
11523 2 34.9415 19.067 54.143
11326 2 39.8288 20.6597 52.4661
11345 2 38.1972 22.298 50.8818
11525 2 38.0608 19.1193 54.0457
11545 2 38.2364 22.2755 54.1
11328 2 42.8645 20.6962 52.5585
11329 2 44.5265 19.0742 51.0041
11349 2 44.5379 22.3262 50.9241
11331 2 47.7186 19.1078 51.0273
11551 2 47.7432 22.2209 53.9775
11333 2 50.8112 19.1275 50.9453
11334 2 52.4492 20.7032 52.5165
11353 2 50.7885 22.3121 50.919
11535 2 54.1457 19.0456 54.0609
11555 2 54.0419 22.3314 54.1243
11336 2 55.6636 20.7255 52.4264
11342 2 33.3307 23.8862 52.4863
11362 2 33.39 27.0642 52.4894
11563 2 34.9761 25.4873 54.0769
11344 2 36.574 23.8975 52.5259
11365 2 38.1716 25.478 50.8514
11366 2 39.7466 27.0189 52.4727
11348 2 42.8081 23.8238 52.462
11368 2 42.8296 26.9082 52.3592
11569 2 44.5579 25.3662 53.9744
11371 2 47.7119 25.3912 50.8712
11373 2 50.7847 25.4401 50.8845
11374 2 52.4982 27.0344 52.4591
11375 2 54.1088 25.4709 50.8489
11573 2 50.8452 25.3831 54.0452
11356 2 55.6607 23.8913 52.5099
11377 2 57.1697 25.5334 50.9047
11386 2 39.6968 30.1089 52.3708
11388 2 42.8448 30.1119 52.3575
11389 2 44.4836 28.5218 50.7455
11589 2 44.5711 28.4748 53.9673
11390 2 46.1989 30.0799 52.3606
11392 2 49.3822 30.1531 52.3326
11395 2 54.1019 28.6791 50.8824
11593 2 50.8585 28.5576 54.0162
11448 2 42.9588 7.95282 55.6587
11454 2 52.5291 7.77321 55.6257
11663 2 34.8933 9.47897 57.1778
11464 2 36.5462 11.1261 55.6344
11466 2 39.7437 11.162 55.6633
11468 2 42.8849 11.0512 55.6251
11689 2 44.5443 12.6606 57.1661
11472 2 49.3822 11.0697 55.6077
11671 2 47.7897 9.4292 57.1606
11691 2 47.7797 12.6572 57.1698
11675 2 54.0638 9.52733 57.225
11476 2 55.7804 11.1471 55.5962
11482 2 33.2622 14.2665 55.724
11703 2 34.8898 15.9694 57.2238
11506 2 39.6905 17.5361 55.6167
11488 2 42.8786 14.2626 55.5767
11707 2 41.2482 15.8794 57.1779
11709 2 44.5074 15.9746 57.1723
11490 2 46.149 14.3864 55.5252
11510 2 46.1398 17.5436 55.4715
11711 2 47.7953 15.9424 57.1536
11514 2 52.4931 17.5444 55.6913
11713 2 50.9866 15.8517 57.2146
11516 2 55.8004 17.4445 55.7645
11721 2 31.8327 19.14 57.2277
11524 2 36.4425 20.7836 55.7467
11725 2 38.0777 19.1668 57.2033
11729 2 44.4946 19.1135 57.1634
11530 2 46.0777 20.6893 55.5759
11731 2 47.7403 19.1403 57.2086
11534 2 52.4341 20.641 55.6945
11753 2 50.8237 22.2701 57.2279
11536 2 55.6753 20.6243 55.7859
11542 2 33.3561 23.8798 55.7142
11562 2 33.2464 27.0766 55.666
11544 2 36.5971 23.8544 55.7465
11564 2 36.5978 27.0121 55.6147
11568 2 42.8885 26.9167 55.5843
11767 2 41.2069 25.3189 57.188
11550 2 46.0642 23.7535 55.6055
11771 2 47.7374 25.3568 57.0957
11773 2 50.9249 25.3511 57.1519
11775 2 54.0532 25.351 57.2153
11576 2 55.6457 26.9736 55.5019
11584 2 36.5391 30.1673 55.6204
11586 2 39.684 30.1566 55.5909
11588 2 42.9101 30.1071 55.6016
11787 2 41.2487 28.515 57.2174
11590 2 46.1386 30.1392 55.5818
11791 2 47.6956 28.5331 57.0991
11594 2 52.5596 30.1799 55.499
11793 2 50.8968 28.5149 57.1012
11596 2 55.6584 30.1071 55.4904
14807 2 41.3074 31.797 44.4489
14809 2 44.459 31.7699 44.4512
14811 2 47.8048 31.7284 44.4256
14813 2 50.8516 31.7836 44.3886
15005 2 38.2409 31.7784 47.6401
15009 2 44.5081 31.7735 47.6864
15013 2 50.9227 31.7598 47.7007
15015 2 54.0867 31.799 47.7542
15401 2 31.8472 31.7131 54.0878
15403 2 34.904 31.7898 54.0211
15209 2 44.5311 31.7923 50.8001
15411 2 47.7618 31.7753 53.9357
15613 2 50.8728 31.7795 57.1673
13148 2 42.8822 55.6161 17.3825
12421 2 31.8183 34.9645 6.53355
12406 2 39.8499 33.2996 8.02586
12425 2 38.2079 34.9594 6.42188
12408 2 43.0244 33.3723 8.06472
12409 2 44.5825 31.8414 6.41984
12427 2 41.4671 35.0097 6.42765
12433 2 50.9631 34.9472 6.42469
12442 2 33.3347 39.7747 7.93895
12424 2 36.5484 36.5908 7.90292
12444 2 36.5489 39.7272 7.89898
12448 2 42.943 39.6725 7.97365
12449 2 44.5201 38.0636 6.46428
12432 2 49.2122 36.6188 7.99754
12453 2 50.9321 38.1891 6.47336
12455 2 54.0514 38.2319 6.40644
12436 2 55.657 36.5779 7.91323
12462 2 33.3314 43.0603 7.90917
12466 2 39.6947 42.9226 7.97482
12467 2 41.3227 41.3094 6.37727
12489 2 44.5392 44.4739 6.42693
12471 2 47.6705 41.296 6.54133
12472 2 49.328 42.8576 8.07208
12491 2 47.7689 44.5689 6.44612
12493 2 50.9146 44.6178 6.41606
12477 2 57.1724 41.3093 6.41692
12497 2 57.1902 44.5867 6.39299
12482 2 33.3825 46.0902 7.9679
12502 2 33.3848 49.2856 8.01607
12486 2 39.6833 46.1708 8.00923
12504 2 36.4982 49.2586 8.00116
12488 2 42.9356 46.157 7.99011
12507 2 41.2956 47.7976 6.37018
12509 2 44.6092 47.8438 6.42994
12490 2 46.1908 46.1443 8.02992
12511 2 47.7833 47.8078 6.36339
12512 2 49.3834 49.3849 7.98646
12494 2 52.5197 46.1674 8.01117
12516 2 55.6182 49.2943 7.90913
12523 2 34.9674 51.0189 6.3724
12526 2 39.8391 52.4909 8.02201
12527 2 41.3757 50.8871 6.41738
12549 2 44.5869 54.0294 6.3973
12532 2 49.3382 52.4398 7.91774
12542 2 33.2811 55.6532 7.96424
12544 2 36.5559 55.6599 7.9224
12546 2 39.7287 55.6957 7.95876
12550 2 46.1593 55.6292 7.89557
12573 2 50.9012 57.1232 6.42839
12556 2 55.5476 55.6271 7.84246
12602 2 33.3169 33.2557 11.138
12623 2 34.9221 34.9137 9.49153
12604 2 36.5555 33.3062 11.1514
12625 2 38.2117 34.94 9.56017
12627 2 41.4422 35.0027 9.65173
12611 2 47.7023 31.8864 9.48506
12631 2 47.6334 34.9086 9.5629
12613 2 50.848 31.8134 9.47142
12614 2 52.4483 33.2966 11.1693
12633 2 50.8689 34.966 9.52527
12635 2 54.0081 34.9417 9.49961
12637 2 57.2102 34.8444 9.49906
12622 2 33.2697 36.5342 11.139
12642 2 33.3349 39.7087 11.1719
12643 2 34.9622 38.1453 9.56957
12624 2 36.6318 36.5456 11.2157
12626 2 39.7729 36.5433 11.2896
12645 2 38.2395 38.2039 9.59014
12647 2 41.3753 38.1291 9.62103
12630 2 46.0046 36.551 11.1757
12632 2 49.2367 36.6477 11.1202
12650 2 46.08 39.7042 11.1565
12636 2 55.5996 36.6053 11.0944
12656 2 55.5867 39.7705 11.0981
12663 2 34.965 41.3993 9.56024
12664 2 36.5565 42.924 11.2171
12665 2 38.1608 41.3007 9.62121
12685 2 38.0283 44.561 9.55303
12667 2 41.2942 41.2582 9.63233
12668 2 42.9617 42.8432 11.2587
12669 2 44.5354 41.2903 9.52624
12687 2 41.3121 44.4725 9.60407
12689 2 44.5749 44.4872 9.58667
12670 2 46.161 42.854 11.1947
12672 2 49.2542 42.8901 11.1307
12675 2 53.9326 41.3598 9.49781
12693 2 50.899 44.5135 9.57549
12676 2 55.5931 42.9366 11.1217
12697 2 57.1673 44.5386 9.4714
12702 2 33.4037 49.3731 11.0447
12686 2 39.6604 46.2012 11.2115
12704 2 36.5685 49.3148 11.1365
12688 2 42.9286 46.1371 11.2217
12707 2 41.3402 47.8644 9.60617
12709 2 44.552 47.8228 9.6012
12710 2 46.1676 49.4033 11.1838
12711 2 47.799 47.7415 9.6332
12694 2 52.5018 46.0691 11.1265
12714 2 52.4035 49.2979 11.0571
12716 2 55.6165 49.3362 11.1006
12717 2 57.1865 47.6043 9.46967
12743 2 34.8766 54.0264 9.5753
12724 2 36.5614 52.4357 11.2244
12725 2 38.2122 50.8527 9.55593
12726 2 39.8275 52.4624 11.2083
12745 2 38.1619 54.0643 9.58376
12728 2 42.9366 52.438 11.1113
12730 2 46.0456 52.4052 11.092
12751 2 47.7882 54.0117 9.52615
12735 2 53.9242 50.94 9.42855
12755 2 53.922 54.0385 9.50132
12736 2 55.6049 52.4226 11.1534
12757 2 57.1672 53.9795 9.46874
12744 2 36.5366 55.6655 11.178
12748 2 42.8992 55.5356 11.1575
12750 2 46.0906 55.5859 11.1359
12771 2 47.7578 57.1726 9.55164
12775 2 53.9835 57.2154 9.55272
12802 2 33.3792 33.306 14.3999
12823 2 34.9966 34.9183 12.814
12806 2 39.6965 33.4956 14.3086
12807 2 41.3153 31.905 12.6818
13027 2 41.4124 35.0101 15.9339
12812 2 49.1682 33.3859 14.3198
13154 2 52.5393 55.6893 17.499
12814 2 52.4288 33.3333 14.3071
13371 2 47.822 57.2086 19.0909
12833 2 50.8217 34.976 12.6659
12835 2 54.0528 34.9642 12.6813
13035 2 54.0714 35.0057 15.9656
12816 2 55.7432 33.3104 14.2737
12822 2 33.332 36.4929 14.3973
12842 2 33.3468 39.7104 14.3126
12843 2 35.0632 38.1492 12.8115
13043 2 35.0046 38.1085 15.9756
12826 2 39.7514 36.5966 14.34
13045 2 38.1039 38.2114 15.8999
12828 2 43.0247 36.5845 14.3314
12847 2 41.4148 38.2588 12.7649
12832 2 49.2481 36.5383 14.3472
12851 2 47.6139 38.1701 12.7857
12852 2 49.3113 39.7465 14.3327
13051 2 47.5696 38.1356 15.8987
12834 2 52.3807 36.6195 14.3061
12854 2 52.3946 39.7388 14.3479
13055 2 54.0027 38.1264 15.994
12836 2 55.6699 36.5741 14.299
12856 2 55.6051 39.7809 14.3195
12862 2 33.3913 42.943 14.3065
12883 2 34.9278 44.5894 12.6243
13377 2 57.2239 57.1564 18.9851
13063 2 35.0217 41.2542 15.9559
12864 2 36.5955 42.9542 14.306
13065 2 38.2093 41.3081 15.9152
12868 2 42.9743 42.8224 14.3128
12887 2 41.2448 44.4444 12.7687
13067 2 41.3107 41.2427 15.8954
13087 2 41.2941 44.4494 15.9381
13089 2 44.5723 44.5657 15.9715
12870 2 46.0713 42.8738 14.3032
12891 2 47.7074 44.5532 12.7577
13071 2 47.6677 41.3259 15.9157
12873 2 50.8665 41.3718 12.703
12875 2 53.9104 41.3877 12.6917
12876 2 55.5635 42.9712 14.3563
12882 2 33.3868 46.1183 14.3429
12903 2 34.9516 47.7075 12.676
13356 2 55.5812 55.6491 20.738
12884 2 36.5988 46.1254 14.3556
12886 2 39.6774 46.1692 14.3324
12904 2 36.6199 49.3295 14.2967
12906 2 39.7489 49.3152 14.2935
12888 2 42.8917 46.1376 14.3217
12909 2 44.5626 47.7766 12.7914
13109 2 44.5943 47.6981 15.8926
12892 2 49.2649 46.0756 14.3737
12912 2 49.1746 49.2726 14.2695
12913 2 50.848 47.6841 12.7042
12915 2 54.042 47.6948 12.7672
13113 2 50.969 47.6709 15.891
13115 2 54.0098 47.7184 15.8967
12896 2 55.6469 46.0517 14.3834
12917 2 57.2345 47.6926 12.7805
12921 2 31.8229 50.9645 12.7307
12941 2 31.8119 54.1336 12.6807
12943 2 34.8944 54.0766 12.7927
13121 2 31.8397 50.9488 15.9147
13123 2 34.9018 50.9473 15.8529
13145 2 38.1277 54.0461 15.7485
12928 2 42.9001 52.4742 14.2254
13129 2 44.5799 50.8004 15.7754
12932 2 49.2527 52.4075 14.2417
12951 2 47.6959 54.0102 12.6853
12934 2 52.4467 52.4475 14.13
13133 2 50.8701 50.826 15.8892
13135 2 54.0697 50.7338 15.8417
13153 2 50.8289 54.0277 15.9283
13155 2 54.1002 54.0343 15.8726
12936 2 55.6785 52.3957 14.1928
13161 2 31.8274 57.2365 15.7886
12965 2 38.1906 57.174 12.7429
13165 2 38.0964 57.2211 15.8441
12948 2 42.8725 55.5794 14.2572
13169 2 44.5857 57.223 15.7877
12952 2 49.2495 55.6451 14.2838
12954 2 52.5343 55.6355 14.2129
12973 2 50.9624 57.2186 12.6481
12956 2 55.6545 55.6784 14.1972
13002 2 33.4078 33.4002 17.5201
13004 2 36.51 33.3961 17.5618
13006 2 39.6397 33.4245 17.5515
13008 2 42.9978 33.3612 17.476
13150 2 46.2095 55.587 17.3971
13208 2 42.9035 33.3118 20.7248
13227 2 41.3275 35.0309 19.1713
13229 2 44.5018 35.0426 19.0417
13010 2 46.1263 33.3824 17.4123
13012 2 49.1946 33.3875 17.4948
13369 2 44.5108 57.1931 19.1133
13212 2 49.3434 33.3307 20.6307
13014 2 52.431 33.3709 17.5514
13214 2 52.481 33.3699 20.7794
13233 2 50.9315 35.0456 19.1051
13016 2 55.7002 33.3941 17.5694
13216 2 55.6471 33.3976 20.7543
13042 2 33.2727 39.7045 17.6321
13222 2 33.3248 36.6465 20.6706
13243 2 34.9751 38.1972 19.1409
13024 2 36.5922 36.4676 17.5739
13026 2 39.7268 36.6119 17.5545
13046 2 39.7804 39.6901 17.6352
13224 2 36.599 36.6109 20.6733
13248 2 42.8981 39.7231 20.6484
13032 2 49.2109 36.5513 17.4769
13050 2 46.0388 39.6948 17.5186
13230 2 46.1047 36.6563 20.5711
13232 2 49.3015 36.5933 20.66
13250 2 46.119 39.7808 20.6449
13253 2 50.8668 38.221 19.0651
13254 2 52.4369 39.7513 20.8303
13255 2 53.9729 38.0587 19.0855
13056 2 55.6774 39.6914 17.4999
13236 2 55.6455 36.466 20.6945
13256 2 55.612 39.6885 20.7334
13062 2 33.3286 42.8855 17.5761
13263 2 34.938 41.2506 19.2387
13283 2 34.915 44.4876 19.1935
13064 2 36.5938 42.9228 17.5296
13264 2 36.5488 42.8462 20.7658
13266 2 39.81 42.8595 20.6994
13285 2 38.2141 44.5162 19.1457
13068 2 42.8935 42.8642 17.5183
13268 2 42.8589 42.9245 20.7071
13269 2 44.543 41.3611 19.0625
13289 2 44.5822 44.4986 19.0415
13072 2 49.2496 42.9737 17.4631
13074 2 52.4556 42.9464 17.4011
13273 2 50.788 41.3046 19.105
13274 2 52.4992 42.8999 20.7413
13275 2 54.0307 41.3161 19.0497
13293 2 50.9117 44.5385 19.1049
13276 2 55.5956 42.9736 20.762
13277 2 57.2321 41.3866 19.0747
13082 2 33.3772 46.1393 17.5141
13282 2 33.2715 46.1669 20.8491
13303 2 34.897 47.7967 19.1276
13084 2 36.5581 46.1341 17.4392
13086 2 39.7752 46.1474 17.4854
13104 2 36.587 49.3627 17.4762
13106 2 39.7612 49.3232 17.4536
13284 2 36.5172 46.1499 20.7825
13304 2 36.5299 49.3748 20.6939
13305 2 38.2109 47.7263 19.1628
13108 2 42.8207 49.2672 17.4667
13288 2 42.8858 46.0844 20.7274
13308 2 42.8847 49.2048 20.6834
13309 2 44.5763 47.6539 19.0051
13092 2 49.2307 46.1044 17.487
13112 2 49.2364 49.2452 17.5056
13290 2 46.1449 46.0496 20.6835
13292 2 49.2825 46.1304 20.6177
13312 2 49.3932 49.2594 20.562
13315 2 54.0078 47.743 19.0483
13096 2 55.6485 46.0603 17.425
13296 2 55.5747 46.0521 20.6713
13321 2 31.8106 50.9473 19.1191
13343 2 34.9184 54.054 19.1136
13124 2 36.5349 52.439 17.4771
13126 2 39.7384 52.3875 17.4246
13345 2 38.0824 54.024 19.1316
13128 2 42.8977 52.4417 17.3728
13328 2 42.9291 52.3669 20.6736
13329 2 44.589 50.7846 19.0174
13347 2 41.3095 54.0229 19.11
13349 2 44.5317 54.0707 19.0753
13130 2 46.2215 52.4668 17.3947
13330 2 46.1596 52.4319 20.6116
13332 2 49.3494 52.4006 20.603
13134 2 52.4868 52.3644 17.5417
13353 2 50.8865 54.0728 19.1031
13355 2 54.0562 54.009 19.1511
13136 2 55.6783 52.3483 17.4664
13342 2 33.3701 55.6764 20.8078
13363 2 34.928 57.235 19.0764
13144 2 36.4825 55.6434 17.416
13146 2 39.7482 55.6712 17.4663
13346 2 39.6647 55.6913 20.6655
13402 2 33.4193 33.3912 23.9199
13423 2 34.95 34.9517 22.209
13404 2 36.5405 33.316 23.8369
13406 2 39.7999 33.2894 23.772
13425 2 38.2071 34.9588 22.2018
13408 2 42.8961 33.2282 23.8079
13429 2 44.4835 34.9862 22.2229
13410 2 46.0891 33.2825 23.8962
13412 2 49.3472 33.3177 23.8475
13431 2 47.6782 34.9248 22.2027
13416 2 55.5598 33.3365 23.8273
13424 2 36.4918 36.6336 23.8252
13446 2 39.7322 39.6531 23.8783
13447 2 41.2749 38.0475 22.2051
13448 2 42.9113 39.7479 23.8027
13430 2 46.1476 36.5707 23.8526
13432 2 49.365 36.5924 23.8529
13450 2 46.066 39.7826 23.8035
13451 2 47.7735 38.2388 22.2416
13434 2 52.5254 36.6024 23.8456
13456 2 55.5832 39.7196 23.8876
13483 2 34.8223 44.4698 22.389
13464 2 36.4106 42.8582 23.9559
13465 2 38.1139 41.2242 22.3168
13485 2 38.2152 44.5192 22.3693
13468 2 42.9198 42.8965 23.7606
13470 2 46.101 42.8777 23.7399
13493 2 50.9085 44.4725 22.2862
13502 2 33.3639 49.2904 23.8459
13484 2 36.497 46.1337 23.9545
13504 2 36.5473 49.3439 23.9627
13505 2 38.2684 47.7444 22.3289
13508 2 42.8758 49.2635 23.7617
13490 2 46.1071 46.0602 23.7933
13492 2 49.2853 46.0598 23.8136
13511 2 47.6922 47.7572 22.2425
13514 2 52.485 49.2526 23.7067
13496 2 55.6333 45.9699 23.7849
13516 2 55.628 49.2552 23.7924
13523 2 34.9287 51.0156 22.2928
13525 2 38.158 50.9426 22.315
13545 2 38.0331 53.9698 22.2792
13527 2 41.1976 50.8781 22.2976
13547 2 41.3088 54.0014 22.3243
13549 2 44.4727 54.1229 22.2728
13530 2 46.0693 52.4977 23.847
13531 2 47.6954 50.7912 22.2338
13532 2 49.3517 52.4942 23.7554
13551 2 47.7095 54.1324 22.2211
13535 2 54.0516 50.9322 22.1503
13537 2 57.2187 50.9051 22.1731
13542 2 33.3835 55.7125 23.9105
13544 2 36.4531 55.6478 23.9313
13546 2 39.5836 55.6432 23.9058
13567 2 41.398 57.1739 22.2496
13571 2 47.7259 57.1854 22.2455
13573 2 50.9435 57.18 22.2061
13556 2 55.6217 55.6359 23.8688
13602 2 33.4037 33.3991 26.994
13604 2 36.5474 33.4143 27.0603
13606 2 39.7008 33.3291 27.0446
13625 2 38.1686 35.0379 25.4479
13608 2 42.9518 33.223 26.9676
13627 2 41.3327 35.0289 25.4158
13629 2 44.4957 34.9478 25.4468
13827 2 41.3122 34.9333 28.6067
13829 2 44.5414 34.9222 28.591
13612 2 49.3 33.3416 26.9705
13614 2 52.5421 33.3294 26.9732
13633 2 50.9586 34.9322 25.3988
13833 2 50.8588 34.9883 28.6608
13637 2 57.1292 34.9982 25.4646
13837 2 57.1459 34.9459 28.6314
13622 2 33.4739 36.5255 26.9395
13641 2 31.8551 38.1747 25.321
13642 2 33.5172 39.7776 26.9907
13841 2 31.8954 38.1322 28.6237
13843 2 35.0665 38.142 28.7004
13645 2 38.0586 38.1203 25.5309
13646 2 39.6594 39.7242 27.1515
13648 2 42.8865 39.7176 27.0364
13649 2 44.4496 38.0819 25.4264
13847 2 41.2703 38.1382 28.6461
13630 2 46.2083 36.5501 27.0617
13632 2 49.2779 36.5837 27.0223
13650 2 46.1153 39.659 27.0236
13652 2 49.373 39.6453 27.0364
13634 2 52.5485 36.6059 27.0152
13656 2 55.6318 39.7992 27.0546
13857 2 57.2266 38.1522 28.5973
13661 2 31.8455 41.4004 25.3603
13861 2 31.8775 41.4164 28.6125
13883 2 35.019 44.3762 28.5773
13665 2 38.0215 41.2717 25.5194
13666 2 39.6402 42.8623 27.1789
13685 2 38.0782 44.4958 25.5336
13667 2 41.2836 41.3699 25.4617
13687 2 41.2833 44.5227 25.4153
13689 2 44.4758 44.4785 25.4529
13869 2 44.5028 41.2966 28.6522
13887 2 41.2896 44.4494 28.6716
13889 2 44.5311 44.4751 28.65
13671 2 47.7941 41.337 25.403
13691 2 47.7665 44.4138 25.4662
13871 2 47.7064 41.3301 28.5814
13891 2 47.7398 44.5014 28.5942
13673 2 50.9234 41.3049 25.3467
13674 2 52.5263 42.9188 27.0417
13675 2 54.0278 41.3428 25.4197
13893 2 50.9109 44.489 28.6519
13682 2 33.3281 46.0005 27.0269
13703 2 34.8964 47.6937 25.538
13686 2 39.6327 46.1622 27.1312
13704 2 36.5257 49.35 27.0737
13706 2 39.6945 49.3384 27.0495
13688 2 42.893 46.1628 27.1051
13707 2 41.2842 47.7029 25.4027
13709 2 44.4875 47.7298 25.4196
13690 2 46.1109 46.133 27.0121
13712 2 49.3147 49.2059 27.0236
13911 2 47.6957 47.6411 28.651
13694 2 52.4945 45.9849 26.9957
13713 2 50.8811 47.6248 25.3627
13714 2 52.4959 49.2581 26.9864
13715 2 54.0668 47.5931 25.374
13915 2 54.0418 47.6359 28.6684
13696 2 55.6897 45.9517 27.0779
13716 2 55.7117 49.2447 27.0032
13722 2 33.4444 52.4685 27.0883
13941 2 31.8291 54.1686 28.5916
13724 2 36.5012 52.5547 27.0421
13925 2 38.1148 50.9815 28.6805
13728 2 42.8079 52.4172 26.9965
13729 2 44.4672 50.8014 25.4169
13747 2 41.2325 54.0418 25.4674
13929 2 44.442 50.8364 28.5972
13947 2 41.1868 54.0495 28.6309
13949 2 44.4289 54.0694 28.6069
13730 2 46.0734 52.522 26.9483
13731 2 47.6787 50.7705 25.376
13732 2 49.3146 52.5135 26.9701
13931 2 47.7021 50.8682 28.6287
13951 2 47.7147 54.0796 28.6029
13733 2 50.9483 50.9047 25.3505
13753 2 50.9926 54.0824 25.3507
13933 2 50.9153 50.9015 28.6385
13935 2 54.0631 50.8941 28.5893
13736 2 55.679 52.5634 26.9568
13963 2 34.957 57.2109 28.5213
13767 2 41.3464 57.174 25.5123
13769 2 44.5359 57.1734 25.4237
13967 2 41.2846 57.1953 28.6185
13771 2 47.6844 57.1617 25.3704
13971 2 47.7089 57.1967 28.5538
13754 2 52.6445 55.6163 27.0053
13773 2 50.9678 57.1887 25.3608
13973 2 50.9432 57.229 28.5459
13977 2 57.159 57.1792 28.5911
13802 2 33.3868 33.365 30.196
14023 2 34.9918 35.0345 31.8115
13804 2 36.5713 33.4111 30.1734
14006 2 39.6096 33.4436 33.3805
14008 2 42.8955 33.3962 33.4045
14009 2 44.5095 31.8229 31.7605
14027 2 41.2938 34.9629 31.7636
14029 2 44.5823 35.0107 31.818
13810 2 46.2062 33.3844 30.1928
14012 2 49.2305 33.3748 33.4572
13814 2 52.4886 33.3511 30.1381
14013 2 50.932 31.8069 31.8273
14033 2 50.8186 34.9712 31.7744
14035 2 54.0658 34.9739 31.7687
14016 2 55.6203 33.2576 33.4061
14569 2 44.4053 57.2164 38.1962
14037 2 57.1685 34.9744 31.7283
14022 2 33.3539 36.6389 33.3723
14042 2 33.4493 39.6952 33.4445
13826 2 39.5645 36.568 30.2218
14026 2 39.5559 36.6178 33.4025
14046 2 39.5911 39.7649 33.3724
13828 2 42.9382 36.5761 30.1726
14047 2 41.2837 38.1909 31.7798
14048 2 42.883 39.7579 33.4452
14049 2 44.5391 38.1361 31.7755
13852 2 49.3295 39.7087 30.1463
14050 2 46.0939 39.7905 33.4311
14051 2 47.6677 38.037 31.7619
14052 2 49.237 39.7895 33.3704
13854 2 52.5364 39.7605 30.0857
14034 2 52.4432 36.5412 33.4457
14053 2 50.8832 38.0804 31.7663
14055 2 54.0791 38.1393 31.8097
13856 2 55.6205 39.8496 30.155
14057 2 57.204 38.2196 31.821
14061 2 31.904 41.3684 31.768
14063 2 35.033 41.2573 31.7442
14081 2 31.8046 44.4336 31.7615
14083 2 34.9658 44.38 31.7914
14064 2 36.5897 42.8144 33.4473
14066 2 39.6906 42.9042 33.3293
13868 2 42.8231 42.873 30.2966
14069 2 44.4868 41.3216 31.8319
14089 2 44.5517 44.4863 31.9313
13870 2 46.1696 42.9109 30.3012
13872 2 49.3179 42.923 30.2849
14072 2 49.2535 42.974 33.39
14073 2 50.975 41.3158 31.7977
14074 2 52.4661 42.9897 33.4084
14095 2 54.0734 44.4538 31.7043
13882 2 33.3828 46.0841 30.1451
14082 2 33.381 46.0637 33.4859
14103 2 34.9465 47.7378 31.7916
13884 2 36.5996 46.0571 30.1705
13886 2 39.7132 46.0716 30.2637
13906 2 39.8059 49.2811 30.2046
14084 2 36.5529 46.043 33.494
14086 2 39.7662 46.0769 33.4631
14104 2 36.5537 49.2801 33.5257
14105 2 38.1188 47.7004 31.8196
14106 2 39.7695 49.23 33.4536
13888 2 42.8571 46.1326 30.2757
13908 2 42.8515 49.2892 30.2591
14088 2 42.8216 46.0494 33.5009
14109 2 44.5134 47.6506 31.8964
13892 2 49.3347 46.1034 30.3518
13910 2 46.0893 49.2727 30.2896
13912 2 49.3293 49.2237 30.3121
14110 2 46.1111 49.3205 33.3872
14112 2 49.3751 49.218 33.3754
14094 2 52.4114 46.0878 33.4925
14115 2 53.9788 47.67 31.7719
13896 2 55.8061 46.0306 30.1723
13916 2 55.8076 49.2456 30.202
14096 2 55.6565 46.0618 33.3475
14116 2 55.7113 49.2192 33.3371
14121 2 31.8379 50.8482 31.8219
14123 2 34.907 50.876 31.7397
14141 2 31.8661 54.0095 31.7402
14124 2 36.4761 52.4616 33.4163
14125 2 38.0959 50.8929 31.7414
14126 2 39.7567 52.4148 33.414
14145 2 38.1522 54.0761 31.7626
14147 2 41.2747 54.0146 31.782
13930 2 46.0339 52.4407 30.292
14130 2 46.0329 52.4686 33.4219
14132 2 49.359 52.3937 33.3649
14151 2 47.7569 54.0465 31.83
13934 2 52.4794 52.5704 30.2184
14134 2 52.4693 52.4877 33.3541
14135 2 54.0256 50.8096 31.7782
13936 2 55.6987 52.5133 30.162
14136 2 55.6731 52.49 33.3747
14142 2 33.4602 55.606 33.3352
13944 2 36.5442 55.6355 30.1771
13948 2 42.8839 55.6765 30.3056
14148 2 42.9033 55.6225 33.3863
13950 2 46.0642 55.6756 30.3075
13952 2 49.3691 55.6241 30.2435
14150 2 46.095 55.6664 33.4185
13954 2 52.5774 55.6106 30.2114
14173 2 50.9355 57.2182 31.9612
14177 2 57.1086 57.1832 31.7831
14202 2 33.4277 33.3617 36.4495
14223 2 34.9781 35.0228 34.8988
14204 2 36.5509 33.4258 36.5991
14208 2 42.8817 33.3235 36.6098
14227 2 41.2418 34.9796 34.9953
14210 2 46.1274 33.3581 36.4966
14235 2 53.9307 34.9197 35.0207
14216 2 55.5392 33.3583 36.5957
14237 2 57.1606 35.0017 34.9677
14242 2 33.4875 39.8274 36.548
14224 2 36.5503 36.6346 36.6119
14226 2 39.6028 36.6194 36.5889
14246 2 39.6301 39.6758 36.5647
14228 2 42.863 36.6013 36.5303
14248 2 42.8626 39.7343 36.5403
14230 2 46.0876 36.4989 36.4931
14232 2 49.3773 36.4473 36.5579
14250 2 46.0716 39.7919 36.4934
14251 2 47.7327 38.0854 34.9356
14253 2 50.9149 38.1742 35.035
14236 2 55.5097 36.5697 36.6248
14256 2 55.5288 39.7211 36.5523
14257 2 57.2304 38.252 34.9339
14285 2 38.1615 44.4448 35.1305
14267 2 41.2471 41.3999 34.994
14268 2 42.8786 43.0164 36.5207
14291 2 47.6696 44.5477 35.0218
14273 2 50.8647 41.295 35.0516
14274 2 52.4182 42.9783 36.5762
14275 2 54.0614 41.3275 34.9315
14282 2 33.4525 46.0403 36.5447
14302 2 33.3985 49.1747 36.508
14284 2 36.527 46.0725 36.6745
14309 2 44.4622 47.6687 35.0432
14310 2 46.0831 49.3536 36.6171
14311 2 47.7561 47.601 35.0277
14296 2 55.5198 46.1249 36.4917
14322 2 33.4494 52.4371 36.5323
14341 2 31.815 53.9823 34.9718
14326 2 39.7481 52.4543 36.5214
14345 2 38.098 54.0931 34.9413
14327 2 41.4198 50.793 34.9935
14328 2 42.9978 52.4815 36.589
14330 2 46.0403 52.4774 36.6007
14331 2 47.7443 50.8289 35.0115
14332 2 49.2832 52.4631 36.5625
14334 2 52.5218 52.5111 36.5442
14335 2 54.0412 50.7559 34.9858
14353 2 50.8959 54.1605 34.9041
14336 2 55.6528 52.5127 36.5448
14363 2 34.8992 57.2214 34.9945
14344 2 36.5055 55.6496 36.609
14346 2 39.6952 55.6952 36.5687
14350 2 46.0692 55.6269 36.5334
14352 2 49.2595 55.7406 36.488
14354 2 52.5263 55.7116 36.5827
14377 2 57.0725 57.218 34.9935
14402 2 33.4866 33.4106 39.6844
14421 2 31.8439 34.9856 38.0733
14601 2 31.8103 31.8218 41.3598
14612 2 35.0879 34.9874 41.2766
14406 2 39.6487 33.3142 39.7424
14577 2 57.0889 57.2284 38.1943
14427 2 41.2302 34.9421 38.1886
14429 2 44.5055 34.8864 38.2193
14614 2 41.3021 34.9254 41.3401
14615 2 44.4479 34.8983 41.3153
14431 2 47.7598 34.8502 38.1734
14414 2 52.3697 33.45 39.6501
14542 2 33.3717 55.6852 39.7414
14607 2 50.8196 31.8004 41.2591
14618 2 54.0358 35.0488 41.2813
14422 2 33.4994 36.651 39.7162
14441 2 31.8705 38.2563 38.1163
14428 2 42.8636 36.6091 39.759
14448 2 42.9078 39.7708 39.8165
14449 2 44.5071 38.1624 38.1623
14624 2 41.2288 38.2011 41.3652
14430 2 46.1773 36.5651 39.8099
14432 2 49.3865 36.4859 39.7613
14450 2 46.086 39.727 39.8564
14451 2 47.7916 38.178 38.1514
14627 2 50.9621 38.139 41.3395
14456 2 55.5158 39.6767 39.746
14457 2 57.2003 38.1263 38.1632
14629 2 57.1779 38.0237 41.3887
14481 2 31.879 44.4746 38.1726
14631 2 31.9121 41.3487 41.1972
14641 2 31.8268 44.5381 41.2493
14465 2 38.0031 41.3153 38.1638
14466 2 39.598 42.9492 39.7762
14467 2 41.2299 41.3748 38.2052
14469 2 44.5116 41.4329 38.2002
14489 2 44.5142 44.5079 38.1346
14634 2 41.26 41.336 41.4308
14644 2 41.2883 44.454 41.4345
14645 2 44.4588 44.4117 41.3917
14471 2 47.7231 41.3769 38.1369
14472 2 49.3573 42.9852 39.7522
14491 2 47.7153 44.5246 38.1049
14636 2 47.6946 41.3005 41.3984
14646 2 47.7033 44.5205 41.3718
14473 2 50.8785 41.2385 38.1708
14495 2 53.9322 44.5596 38.1633
14637 2 50.9336 41.2421 41.3233
14638 2 53.9522 41.3183 41.3684
14648 2 53.9515 44.4529 41.3223
14476 2 55.5922 42.9046 39.7214
14477 2 57.2115 41.3037 38.0627
14497 2 57.1976 44.5004 38.0441
14639 2 57.1872 41.3521 41.4227
14651 2 31.8025 47.6842 41.3276
14486 2 39.6579 46.0413 39.6322
14504 2 36.4775 49.1436 39.7259
14653 2 38.0977 47.6116 41.3125
14488 2 42.8145 46.0834 39.6951
14508 2 42.9016 49.3323 39.7672
14509 2 44.4743 47.6991 38.1219
14654 2 41.2846 47.6515 41.3703
14655 2 44.4878 47.7513 41.3976
14490 2 46.0978 46.1124 39.7618
14511 2 47.774 47.6683 38.1439
14512 2 49.3419 49.2844 39.7929
14656 2 47.7422 47.74 41.3894
14514 2 52.4715 49.1932 39.7944
14496 2 55.5865 46.1547 39.7709
14517 2 57.196 47.7359 38.0739
14522 2 33.3789 52.4093 39.7579
14523 2 34.9935 50.7642 38.0887
14672 2 34.9236 54.0323 41.3935
14524 2 36.4805 52.4093 39.7256
14525 2 38.1457 50.7688 38.0992
14545 2 38.1352 54.0459 38.1966
14663 2 38.098 50.8255 41.3079
14673 2 38.1437 54.0393 41.2527
14527 2 41.2697 50.8123 38.1583
14528 2 42.9909 52.4762 39.7932
14547 2 41.3386 54.1138 38.2233
14532 2 49.2608 52.3711 39.79
14551 2 47.6329 54.0931 38.2481
14676 2 47.6163 54.1131 41.2911
14533 2 50.9232 50.7941 38.1034
14534 2 52.5538 52.4437 39.7942
14535 2 54.138 50.7824 38.163
14553 2 50.8829 54.1267 38.2119
14677 2 50.9345 54.1095 41.3566
14557 2 57.1775 54.112 38.2156
14669 2 57.1692 50.8982 41.2909
14679 2 57.2392 54.1184 41.3114
14803 2 34.9391 31.8548 44.4103
14821 2 31.8891 34.9238 44.4779
14823 2 34.9394 34.9835 44.4225
14804 2 36.6085 33.4285 46.0775
14805 2 38.2562 31.833 44.4404
14827 2 41.3502 34.8854 44.4678
14829 2 44.4873 34.9705 44.4782
14705 2 46.1654 33.3255 42.7957
14810 2 46.1988 33.3628 46.0948
14812 2 49.3015 33.4073 46.0856
14831 2 47.7535 35.0121 44.4067
14814 2 52.5041 33.3864 45.9949
14835 2 54.0691 35.0241 44.3813
14708 2 55.7256 33.38 42.8951
14816 2 55.7507 33.369 46.0285
14841 2 31.894 38.149 44.4631
14842 2 33.4586 39.7577 46.1032
14843 2 34.9817 38.1797 44.3566
14712 2 36.6675 36.6346 42.8079
14713 2 39.6322 36.5572 42.9061
14824 2 36.6281 36.5718 46.0371
14826 2 39.7348 36.5258 46.1051
14844 2 36.6338 39.7442 46.0178
14828 2 42.9106 36.6136 46.1618
14847 2 41.328 38.2243 44.4548
14848 2 42.9829 39.7763 46.1189
14849 2 44.5543 38.2108 44.4801
14715 2 46.1507 36.6116 42.807
14832 2 49.3446 36.5748 46.016
14851 2 47.6902 38.2314 44.4413
14852 2 49.3443 39.8208 45.9902
14834 2 52.4985 36.6306 46.0053
14854 2 52.5023 39.7309 45.9743
14728 2 55.5997 39.684 43.0155
14836 2 55.6952 36.6354 46.0305
14731 2 33.5089 42.9933 42.8347
14861 2 31.873 41.3872 44.4517
14863 2 35.0486 41.3582 44.4347
14732 2 36.6279 42.9041 42.7938
14866 2 39.7371 42.8923 45.9455
14868 2 42.9563 42.8573 46.0735
14889 2 44.5521 44.4485 44.5247
14736 2 49.3068 42.8832 42.9598
14891 2 47.6958 44.5148 44.6159
14874 2 52.4833 42.8523 45.9837
14893 2 50.8359 44.5609 44.4964
14876 2 55.6804 42.9048 45.9543
14741 2 33.4427 46.1035 42.9487
14902 2 33.3448 49.1988 46.0629
14742 2 36.4974 46.0148 42.904
14753 2 39.6642 49.2841 42.9278
14884 2 36.4855 46.0237 46.024
14886 2 39.6852 46.0031 46.0287
14904 2 36.5095 49.2427 46.0195
14906 2 39.6509 49.2512 46.0482
14888 2 42.9712 46.0898 46.1319
14907 2 41.3475 47.622 44.4325
14908 2 43.0121 49.1954 46.1349
14745 2 46.0863 46.1361 42.9968
14911 2 47.7448 47.7228 44.5668
14747 2 52.4041 46.1436 42.8506
14914 2 52.3655 49.2428 46.0202
14915 2 54.0252 47.6599 44.4964
14748 2 55.6826 46.0704 42.9103
14758 2 55.6391 49.2598 42.8849
14916 2 55.7463 49.3111 46.0417
14923 2 34.935 50.8836 44.4135
14943 2 34.9322 53.9699 44.5053
14763 2 39.7553 52.491 42.9116
14764 2 42.9195 52.5031 42.8105
14927 2 41.3461 50.8569 44.4765
14928 2 42.9401 52.4859 46.0713
14929 2 44.5854 50.8239 44.4968
14949 2 44.5387 54.1267 44.4606
14765 2 46.099 52.4542 42.8499
14766 2 49.2969 52.4021 42.9181
14931 2 47.6931 50.7738 44.532
14932 2 49.282 52.5481 46.0625
14935 2 53.9783 50.9243 44.4705
14953 2 50.9627 54.1011 44.4993
14768 2 55.6111 52.5129 42.9396
14942 2 33.3179 55.683 46.0727
14963 2 34.8754 57.235 44.4918
14772 2 36.5625 55.6356 42.889
14773 2 39.8018 55.608 42.8447
14946 2 39.8283 55.5649 46.0383
14965 2 38.1479 57.2054 44.4943
14967 2 41.4212 57.2181 44.4066
14969 2 44.5215 57.1845 44.4531
14776 2 49.2007 55.6961 42.9708
14950 2 46.2509 55.6982 46.1022
14778 2 55.5853 55.5902 42.953
14956 2 55.638 55.6544 46.0455
15021 2 31.8531 34.908 47.7256
15023 2 34.9479 34.9953 47.6917
15004 2 36.6357 33.3938 49.2878
15006 2 39.7753 33.4003 49.3052
15008 2 42.8131 33.3743 49.2465
15029 2 44.5905 34.985 47.6778
15033 2 50.8896 34.9527 47.7387
15035 2 54.1556 34.9523 47.7215
15022 2 33.398 36.6454 49.3564
15042 2 33.4063 39.728 49.3467
15026 2 39.7638 36.5107 49.32
15045 2 38.1455 38.163 47.7304
15046 2 39.8025 39.6531 49.3729
15028 2 42.858 36.5915 49.2464
15051 2 47.6202 38.1488 47.6547
15052 2 49.2797 39.7162 49.2767
15034 2 52.527 36.6066 49.2814
15053 2 50.9027 38.1754 47.6972
15061 2 31.8261 41.4137 47.7253
15063 2 35.0085 41.4284 47.66
15064 2 36.5709 43.0151 49.2867
15065 2 38.1739 41.3362 47.6918
15067 2 41.3046 41.2731 47.7126
15068 2 42.9497 42.8399 49.318
15087 2 41.2982 44.4325 47.7069
15070 2 46.0286 42.9257 49.2059
15071 2 47.6179 41.3354 47.5974
15072 2 49.2697 42.9533 49.2121
15074 2 52.4571 42.8894 49.2371
15075 2 54.1201 41.224 47.6562
15093 2 50.8472 44.5435 47.5439
15095 2 54.1043 44.5785 47.6034
15076 2 55.6769 42.8309 49.2949
15102 2 33.3614 49.2261 49.1435
15084 2 36.4475 46.0096 49.2579
15086 2 39.7173 46.015 49.3342
15104 2 36.4662 49.2256 49.1923
15105 2 38.0935 47.6109 47.6594
15106 2 39.7425 49.2027 49.2805
15088 2 42.8949 46.1259 49.2597
15108 2 42.9707 49.2613 49.2538
15092 2 49.222 46.1356 49.155
15112 2 49.2066 49.269 49.2088
15094 2 52.4304 46.1275 49.2603
15115 2 54.1162 47.6906 47.6827
15122 2 33.375 52.4356 49.1331
15124 2 36.5163 52.4207 49.1616
15126 2 39.7396 52.4605 49.2236
15145 2 38.1034 54.0158 47.5519
15127 2 41.3081 50.8668 47.6386
15128 2 42.9928 52.4277 49.2531
15149 2 44.6097 54.0433 47.6311
15131 2 47.6295 50.9024 47.6588
15133 2 50.8464 50.8872 47.6309
15134 2 52.4583 52.5211 49.2007
15135 2 54.0857 50.8662 47.6332
15155 2 54.0989 54.0457 47.5766
15136 2 55.7778 52.4378 49.2432
15144 2 36.4695 55.7093 49.234
15146 2 39.8031 55.6737 49.2289
15165 2 38.135 57.2274 47.6694
15148 2 42.9846 55.7174 49.2064
15150 2 46.1508 55.7602 49.1922
15154 2 52.4959 55.7288 49.163
15177 2 57.2394 57.2192 47.7594
15203 2 34.9506 31.8115 50.9638
15223 2 34.9536 34.9495 50.885
15421 2 31.9231 34.9645 54.0716
15423 2 34.9535 34.9976 54.0647
15405 2 38.1003 31.8127 53.9395
15425 2 38.1627 34.995 53.9858
15229 2 44.5819 34.9288 50.8214
15407 2 41.3045 31.8337 53.9654
15409 2 44.515 31.8056 53.9359
15427 2 41.3043 34.9818 53.9857
15211 2 47.7608 31.8613 50.7959
15231 2 47.7425 34.9233 50.757
15233 2 50.903 34.8416 50.8334
15235 2 54.1456 34.9162 50.8397
15435 2 54.1557 35.0508 54.0156
15216 2 55.7185 33.3035 52.4194
15441 2 31.8878 38.206 54.0115
15443 2 34.922 38.1633 54.0297
15224 2 36.5884 36.6138 52.3553
15445 2 38.1601 38.161 53.9824
15228 2 42.8781 36.567 52.4027
15249 2 44.5356 38.2264 50.8035
15449 2 44.4679 38.1692 53.9854
15230 2 46.1813 36.5689 52.455
15232 2 49.2934 36.5723 52.4106
15234 2 52.5075 36.5712 52.4426
15254 2 52.6213 39.7455 52.46
15255 2 54.2295 38.1644 50.8621
15453 2 50.9308 38.1601 54.0275
15262 2 33.3667 42.8386 52.4348
15263 2 35.0361 41.2959 50.903
15483 2 35.0631 44.4679 54.0556
15265 2 38.1328 41.27 50.9253
15266 2 39.7412 42.9305 52.4566
15485 2 38.0868 44.5004 54.12
15268 2 42.8739 42.9325 52.43
15289 2 44.5024 44.5535 50.8892
15467 2 41.3196 41.3148 54.043
15469 2 44.5096 41.3528 54.0133
15271 2 47.6193 41.2897 50.8877
15272 2 49.3375 43.0134 52.4409
15291 2 47.6507 44.5608 50.8678
15471 2 47.648 41.3941 54.0047
15491 2 47.7019 44.54 54.1095
15273 2 50.9129 41.2935 50.8767
15295 2 54.0512 44.4876 50.8798
15473 2 50.8841 41.3576 54.0041
15495 2 54.0472 44.4703 54.0637
15276 2 55.6689 42.7394 52.4582
15282 2 33.4287 46.0883 52.4243
15302 2 33.3536 49.1995 52.4864
15286 2 39.7814 46.0662 52.5035
15305 2 38.0453 47.631 50.9498
15306 2 39.7303 49.1934 52.5733
15309 2 44.518 47.7482 50.8931
15509 2 44.427 47.7537 53.9891
15290 2 46.0828 46.1265 52.5303
15311 2 47.5918 47.7307 50.8291
15312 2 49.2444 49.2648 52.4811
15294 2 52.428 46.1196 52.5099
15313 2 50.8386 47.6988 50.8619
15314 2 52.5389 49.2316 52.5361
15296 2 55.6373 46.2006 52.4629
15316 2 55.6606 49.2466 52.4899
15322 2 33.3247 52.5067 52.5267
15323 2 34.959 50.8146 50.8833
15343 2 34.9205 54.0982 50.8128
15523 2 35.0438 50.8543 54.0895
15324 2 36.5652 52.4934 52.5404
15325 2 38.1266 50.8242 50.9409
15345 2 38.1928 54.0716 50.9058
15545 2 38.2559 54.0407 54.1412
15327 2 41.3381 50.8507 50.9426
15328 2 43.0348 52.4332 52.5172
15347 2 41.3529 54.0985 50.9579
15349 2 44.5778 54.0395 50.8572
15527 2 41.3543 50.9121 54.1346
15547 2 41.2779 54.043 54.113
15332 2 49.3014 52.5004 52.4343
15351 2 47.725 54.0672 50.7802
15531 2 47.6565 50.9443 54.0058
15551 2 47.7638 54.1079 54.0602
15333 2 50.8787 50.8838 50.81
15334 2 52.5154 52.5038 52.5119
15335 2 54.0972 50.8187 50.8036
15353 2 50.818 54.1598 50.7967
15355 2 54.1316 54.1268 50.8152
15533 2 50.8998 50.893 54.1142
15555 2 54.1787 54.121 54.1411
15336 2 55.7377 52.4865 52.4608
15537 2 57.2224 50.9261 54.1965
15342 2 33.3531 55.6792 52.4591
15344 2 36.5765 55.7282 52.4609
15567 2 41.3071 57.1746 54.0148
15350 2 46.0802 55.6927 52.4329
15354 2 52.5105 55.7369 52.5003
15356 2 55.7306 55.7116 52.4334
15404 2 36.5867 33.3971 55.7169
15406 2 39.7029 33.4212 55.7384
15408 2 42.9421 33.4523 55.6586
15410 2 46.1085 33.3944 55.597
15412 2 49.3427 33.3731 55.502
15631 2 47.7389 34.9292 57.2396
15414 2 52.5193 33.379 55.5023
15615 2 54.1334 31.8383 57.1874
15633 2 50.9538 34.9934 57.1841
15416 2 55.74 33.4571 55.5653
15641 2 31.9803 38.1503 57.234
15426 2 39.7849 36.571 55.7134
15444 2 36.4955 39.7715 55.6137
15446 2 39.7184 39.7146 55.6249
15448 2 42.8626 39.6391 55.6595
15430 2 46.0573 36.5208 55.5898
15432 2 49.2792 36.5382 55.534
15450 2 46.0943 39.7341 55.6483
15452 2 49.2797 39.7896 55.6524
15454 2 52.6081 39.7185 55.6156
15462 2 33.3253 42.8409 55.6453
15687 2 41.2497 44.4457 57.1317
15691 2 47.7143 44.5184 57.1267
15474 2 52.4622 42.8914 55.6453
15693 2 50.9067 44.6176 57.2012
15695 2 54.0308 44.5826 57.2308
15677 2 57.2349 41.2806 57.1526
15482 2 33.3655 46.0851 55.644
15502 2 33.3833 49.2572 55.6016
15504 2 36.6451 49.2379 55.6659
15506 2 39.6413 49.2994 55.6574
15488 2 42.8807 46.0205 55.5325
15707 2 41.2431 47.7041 57.1708
15709 2 44.4804 47.7085 57.1471
15510 2 46.1156 49.3371 55.5785
15512 2 49.3198 49.2576 55.6476
15711 2 47.7091 47.6604 57.1615
15715 2 54.0051 47.7766 57.2052
15496 2 55.6838 46.2026 55.6295
15522 2 33.4259 52.5329 55.6106
15741 2 31.8307 54.1079 57.1634
15729 2 44.4371 50.9193 57.1678
15530 2 46.0702 52.5393 55.6525
15534 2 52.5376 52.482 55.6736
15544 2 36.6337 55.6319 55.6946
15548 2 42.8877 55.6195 55.714
15550 2 46.0667 55.6137 55.6719
15554 2 52.4797 55.7569 55.6847
