ITEM: TIMESTEP
0
ITEM: NUMBER OF ATOMS
4164
ITEM: BOX BOUNDS pp pp pp
0.0000000000000000e+00 6.3600000000000001e+01
0.0000000000000000e+00 6.3600000000000001e+01
0.0000000000000000e+00 6.3600000000000001e+01
ITEM: ATOMS id type x y z
5215 1 22.2226 31.7787 19.0982
5213 1 19.0369 31.678 19.1078
5209 1 12.7741 31.6712 19.1305
5017 1 25.4124 31.7171 15.9558
5015 1 22.2047 31.6404 15.8919
5013 1 19.0606 31.6023 15.8948
4815 1 22.1919 31.6233 12.7875
5011 1 15.9417 31.6158 15.9055
12601 1 31.6983 31.7565 9.59317
5009 1 12.7643 31.6812 15.9599
4809 1 12.7898 31.7433 12.731
4613 1 19.1069 31.691 9.60875
4611 1 15.8655 31.699 9.54721
1399 1 28.585 28.6023 19.0027
12801 1 31.7313 31.7383 12.6676
4607 1 9.55969 31.7517 9.45739
4605 1 6.37688 31.7431 9.51638
4413 1 19.0691 31.7442 6.45564
1198 1 27.0536 30.2117 17.5311
8581 1 31.6628 28.6368 6.38716
1178 1 27.0113 27.0352 17.5301
1158 1 26.9358 23.7627 17.5179
9181 1 31.7564 28.5429 15.854
8981 1 31.7629 28.6143 12.7291
9161 1 31.7294 25.5884 15.8581
448 1 11.1229 7.95931 7.96142
450 1 14.2548 7.86858 7.96731
452 1 17.5079 7.87735 7.95387
456 1 23.8549 7.95867 7.93041
470 1 14.2434 11.1649 8.02312
475 1 22.2788 9.51113 6.38478
476 1 23.8438 11.1978 7.95201
479 1 28.634 9.6004 6.379
480 1 30.2113 11.0943 7.88902
1393 1 19.0247 28.627 18.9663
488 1 11.1673 14.3463 8.02364
490 1 14.2957 14.4095 7.98174
510 1 14.3662 17.3977 7.89346
518 1 27.0138 17.5219 7.91286
1194 1 20.5678 30.1622 17.4405
1392 1 17.5328 30.1383 20.7051
528 1 11.2198 20.7604 7.98006
549 1 12.7946 22.2057 6.40102
530 1 14.3073 20.68 7.91928
532 1 17.553 20.6671 7.91425
533 1 19.029 19.1365 6.41717
534 1 20.6585 20.7243 7.98332
535 1 22.2105 19.0973 6.3924
553 1 19.0081 22.2143 6.4765
555 1 22.2065 22.237 6.45767
537 1 25.4248 19.0635 6.43438
538 1 26.9591 20.691 7.94423
557 1 25.4558 22.2885 6.47641
539 1 28.4738 19.0894 6.45983
1391 1 15.9088 28.6217 19.0595
546 1 7.91226 23.8284 7.92412
550 1 14.2949 23.7855 7.91964
552 1 17.583 23.8513 7.93092
571 1 15.9306 25.4011 6.38345
573 1 19.0351 25.4222 6.42525
574 1 20.5593 26.9547 8.0611
556 1 23.8001 23.7348 7.99116
558 1 27.0303 23.8298 8.00845
576 1 23.8905 27.0316 8.05109
560 1 30.1862 23.875 8.04559
579 1 28.6073 25.4768 6.38918
580 1 30.1708 27.1323 7.98777
1390 1 14.4235 30.1502 20.713
586 1 7.8983 30.2928 7.96988
588 1 11.0999 30.3012 7.93187
590 1 14.3761 30.1576 8.01234
591 1 15.9058 28.6104 6.38356
594 1 20.5865 30.2168 8.0204
599 1 28.7291 28.5858 6.41689
600 1 30.2054 30.1447 8.09082
1192 1 17.5285 30.1108 17.4846
1190 1 14.4141 30.1759 17.4979
8961 1 31.7786 25.5167 12.7622
9141 1 31.7223 22.2118 15.8771
9101 1 31.7693 15.8841 15.9944
646 1 8.00328 8.0163 11.1209
648 1 11.1368 8.00503 11.0445
652 1 17.571 7.96415 11.0763
656 1 23.8865 7.9216 11.1455
666 1 7.99206 11.1476 11.0716
685 1 6.38781 12.7962 9.61696
667 1 9.52277 9.47961 9.57891
669 1 12.6799 9.4661 9.46173
687 1 9.5007 12.7511 9.56394
689 1 12.7454 12.7635 9.4279
691 1 15.8483 12.7578 9.48999
673 1 19.0089 9.47222 9.53443
695 1 22.2926 12.6998 9.52102
677 1 25.432 9.53629 9.55179
678 1 27.0366 11.1634 11.1749
697 1 25.4575 12.6901 9.55783
680 1 30.2602 11.1133 11.2581
1388 1 11.1753 30.1972 20.6307
686 1 7.98306 14.3276 11.0144
705 1 6.39046 15.9242 9.58726
706 1 7.99315 17.4909 11.0967
707 1 9.54314 15.9029 9.55552
709 1 12.8264 15.9051 9.4507
692 1 17.4372 14.3535 11.073
710 1 14.3403 17.4437 11.0777
711 1 15.8737 15.9773 9.55555
712 1 17.5128 17.4794 11.0948
713 1 19.0202 15.9782 9.62046
714 1 20.7189 17.6097 11.2105
716 1 23.7998 17.5688 11.2894
719 1 28.5707 15.962 9.59563
720 1 30.1632 17.48 11.1492
1387 1 9.64646 28.6819 19.1544
1188 1 11.2253 30.2373 17.5578
726 1 7.98663 20.7123 11.1199
745 1 6.39668 22.2807 9.52784
728 1 11.1981 20.6978 11.1018
747 1 9.62187 22.2237 9.6069
749 1 12.7497 22.1555 9.54145
730 1 14.2912 20.62 11.1438
732 1 17.6147 20.6833 11.1892
735 1 22.2463 19.1258 9.67117
753 1 19.054 22.1819 9.51275
755 1 22.3106 22.2695 9.61592
736 1 23.7688 20.6921 11.2487
738 1 26.9204 20.7047 11.2142
740 1 30.1703 20.7249 11.0694
759 1 28.5395 22.2657 9.55036
1386 1 7.95413 30.2091 20.6916
766 1 7.94767 27.0269 11.098
748 1 11.1208 23.7771 11.1149
772 1 17.5364 27.0444 11.1243
773 1 19.0896 25.4499 9.55495
756 1 23.8185 23.8033 11.2834
776 1 23.8879 26.9967 11.2826
778 1 27.0236 27.0586 11.2174
785 1 6.38772 28.6758 9.52309
786 1 7.90233 30.2561 11.0206
789 1 12.8011 28.7092 9.52883
790 1 14.3537 30.1256 11.1314
791 1 15.9295 28.6528 9.63992
792 1 17.4724 30.11 11.0755
793 1 19.0974 28.5988 9.63378
794 1 20.6488 30.1277 11.1823
797 1 25.4733 28.5262 9.68085
798 1 27.0684 30.0513 11.1333
799 1 28.6648 28.6556 9.63428
800 1 30.2208 30.1568 11.114
8901 1 31.7922 15.9327 12.6679
8781 1 31.6764 28.6963 9.60424
848 1 11.1278 7.97072 14.2915
854 1 20.6766 7.92301 14.2826
856 1 23.9308 7.92002 14.3472
867 1 9.49773 9.52831 12.6213
889 1 12.7229 12.818 12.7811
1067 1 9.57244 9.53862 15.9177
1087 1 9.60802 12.7872 15.9269
891 1 15.9386 12.8385 12.7463
1071 1 15.9173 9.6591 15.9654
873 1 19.1333 9.53274 12.759
874 1 20.686 11.2079 14.2931
895 1 22.2367 12.7298 12.7895
1093 1 19.1421 12.7489 15.9565
897 1 25.4964 12.7646 12.7758
1077 1 25.4235 9.51376 15.941
879 1 28.673 9.59819 12.6937
899 1 28.6056 12.7055 12.7317
1180 1 30.2512 27.1123 17.492
888 1 11.1514 14.3415 14.3302
1107 1 9.71441 15.9155 15.9272
890 1 14.3834 14.3264 14.2842
892 1 17.518 14.3779 14.3854
910 1 14.3708 17.56 14.3904
1111 1 15.863 15.9053 15.8667
915 1 22.2995 16.0724 12.7395
1113 1 19.1646 15.9279 15.9343
1115 1 22.2646 15.9736 15.9896
898 1 26.9667 14.3969 14.3635
916 1 23.8834 17.5289 14.3305
917 1 25.4035 16.0199 12.8585
918 1 26.9171 17.4815 14.4738
1117 1 25.481 15.9707 15.941
1119 1 28.4658 15.9417 15.9883
925 1 6.42446 19.1637 12.6505
1145 1 6.389 22.1982 15.9142
928 1 11.193 20.6536 14.4606
929 1 12.839 19.1132 12.7525
1127 1 9.68985 19.1918 15.9698
1129 1 12.7704 19.0774 15.9253
1147 1 9.65006 22.2493 15.9408
1149 1 12.6379 22.2082 15.9231
930 1 14.2917 20.5518 14.3888
1131 1 15.8484 19.0632 15.8837
933 1 19.1017 19.0768 12.6532
935 1 22.3634 19.1026 12.739
953 1 19.1177 22.2904 12.7912
955 1 22.3608 22.2819 12.7905
1133 1 19.188 19.1269 15.9872
1153 1 19.1434 22.3037 15.9642
1155 1 22.2339 22.2392 15.9172
936 1 23.8202 20.6584 14.2549
937 1 25.3084 19.0801 12.7886
957 1 25.2988 22.1999 12.7282
1137 1 25.4168 19.0404 15.9518
940 1 30.1362 20.6778 14.3974
1139 1 28.5082 19.0363 16.0443
946 1 7.95996 23.8263 14.3759
966 1 7.92847 26.9841 14.343
1165 1 6.42182 25.4413 15.8023
948 1 11.1281 23.7664 14.3909
967 1 9.53764 25.4149 12.7978
968 1 11.1581 26.9991 14.2799
952 1 17.6336 23.793 14.3139
954 1 20.6978 23.7636 14.2847
973 1 19.1098 25.3775 12.8171
975 1 22.3702 25.3758 12.7787
956 1 23.797 23.7681 14.2439
976 1 23.8009 26.9801 14.2219
977 1 25.3515 25.461 12.7417
978 1 26.9801 26.9856 14.1833
979 1 28.5447 25.5408 12.7624
980 1 30.2363 27.0328 14.2502
1376 1 23.767 26.9246 20.7296
989 1 12.8101 28.6533 12.7564
990 1 14.3725 30.1613 14.3568
991 1 15.9537 28.6735 12.7238
992 1 17.4698 30.1342 14.4623
1191 1 15.9356 28.6482 16.0107
994 1 20.7094 30.1352 14.4021
995 1 22.2822 28.5653 12.8026
1193 1 19.0784 28.6423 15.9841
1195 1 22.1928 28.6121 15.8589
996 1 23.7346 30.1135 14.3344
997 1 25.4318 28.4599 12.7468
999 1 28.5557 28.5603 12.6967
8761 1 31.7431 25.415 9.52321
8741 1 31.7733 22.3443 9.52518
8721 1 31.7217 19.0612 9.60671
1048 1 11.1706 7.97252 17.4612
1248 1 11.1501 7.94326 20.657
1251 1 15.9661 6.37596 19.1086
1252 1 17.5454 7.94401 20.7154
1254 1 20.7214 7.97837 20.838
1056 1 23.9495 7.95879 17.4555
1258 1 27.0859 8.02458 20.8544
1358 1 26.9043 23.7949 20.7671
1066 1 7.9248 11.1986 17.4191
1266 1 7.85079 11.1827 20.701
1285 1 6.45758 12.6508 19.0721
1268 1 11.2044 11.1451 20.6262
1269 1 12.6775 9.56739 19.074
1070 1 14.3993 11.1437 17.5238
1072 1 17.4943 11.2276 17.5366
1271 1 15.9726 9.65941 19.0275
1291 1 15.9374 12.7817 19.0058
1074 1 20.6362 11.2533 17.5149
1293 1 19.126 12.7607 19.0321
1078 1 27.1198 11.1734 17.6128
1276 1 23.9457 11.1544 20.7679
1080 1 30.216 11.1465 17.6124
1279 1 28.6325 9.62431 19.1355
1299 1 28.5911 12.7334 19.0792
1088 1 11.1323 14.4452 17.5006
1108 1 11.2285 17.5387 17.495
1288 1 11.2308 14.4637 20.6241
1307 1 9.7576 15.959 19.055
1308 1 11.2769 17.4811 20.5767
1309 1 12.7272 15.9709 19.0204
1090 1 14.3881 14.4019 17.5175
1110 1 14.327 17.5586 17.4801
1292 1 17.5001 14.3374 20.6597
1094 1 20.6535 14.4321 17.4873
1114 1 20.7237 17.4675 17.4697
1313 1 19.1718 15.9444 19.0204
1315 1 22.277 15.9499 19.0036
1096 1 23.8712 14.5065 17.5092
1098 1 27.0043 14.4417 17.5003
1118 1 26.9528 17.5281 17.5017
1298 1 27.0188 14.3496 20.7916
1316 1 23.8863 17.5928 20.6431
1317 1 25.4533 15.9292 19.0475
1120 1 30.0386 17.5071 17.5121
1126 1 7.95363 20.6927 17.4467
1325 1 6.45779 19.197 18.9938
1326 1 7.92076 20.7402 20.6091
1345 1 6.46557 22.2345 19.0823
1128 1 11.2351 20.6923 17.4324
1328 1 11.2732 20.7026 20.5915
1329 1 12.7137 19.0796 19.068
1349 1 12.6674 22.2305 19.1232
1132 1 17.5733 20.6372 17.4001
1330 1 14.3685 20.6816 20.6833
1332 1 17.4885 20.6295 20.7637
1134 1 20.737 20.7188 17.445
1335 1 22.3422 19.1418 19.0645
1355 1 22.2454 22.1517 19.028
1136 1 23.8302 20.6355 17.6182
1138 1 26.9182 20.5262 17.5571
1336 1 23.8446 20.6307 20.6783
1337 1 25.3585 19.1021 19.0832
1357 1 25.3989 22.1609 19.0825
1140 1 30.0645 20.609 17.5342
1339 1 28.5316 19.0791 19.0387
1340 1 30.0512 20.5865 20.7342
1346 1 7.954 23.8122 20.647
1148 1 11.164 23.7923 17.5331
1348 1 11.2062 23.8919 20.58
1367 1 9.62267 25.3318 19.1496
1368 1 11.1649 26.987 20.6177
1369 1 12.7113 25.4585 19.1618
1152 1 17.5332 23.8029 17.4822
1170 1 14.3819 27.0602 17.5591
1172 1 17.4984 27.1542 17.517
1352 1 17.453 23.8469 20.7496
1370 1 14.4061 27.0279 20.7023
1154 1 20.7162 23.758 17.4817
1174 1 20.615 27.0723 17.4615
1375 1 22.212 25.4215 19.0553
10541 1 31.7914 22.2807 38.0466
10651 1 31.748 15.8566 41.2667
10481 1 31.7554 12.7063 38.0631
1453 1 19.17 6.43433 22.2894
1454 1 20.7361 7.94048 23.8169
1455 1 22.2694 6.41084 22.3021
1457 1 25.5348 6.40492 22.3654
1458 1 27.0435 8.02142 23.8818
1459 1 28.529 6.47077 22.3507
2699 1 25.3895 28.6499 41.2621
1466 1 7.87909 11.1227 23.8321
1485 1 6.37443 12.6607 22.3309
1491 1 16.0045 12.8808 22.3028
1473 1 19.2156 9.50838 22.2812
1474 1 20.6802 11.041 23.8403
1475 1 22.233 9.53312 22.3197
1477 1 25.5962 9.54057 22.3342
1478 1 27.1048 11.0841 23.853
1497 1 25.5417 12.7846 22.274
1479 1 28.5892 9.57933 22.4081
1480 1 30.207 11.0742 23.8465
1499 1 28.602 12.7565 22.4232
1506 1 8.03968 17.4763 23.9186
1509 1 12.7718 15.9302 22.2395
1490 1 14.4213 14.3863 23.8977
1492 1 17.4478 14.3794 23.8993
1511 1 16.0131 15.8757 22.339
1512 1 17.4644 17.4945 23.8409
1494 1 20.7043 14.44 23.9182
1514 1 20.695 17.5368 23.8118
1498 1 27.0771 14.341 23.7818
1516 1 23.907 17.5833 23.7669
1517 1 25.4656 15.9691 22.2922
1518 1 27.0116 17.5406 23.7883
1500 1 30.1405 14.3145 23.7978
1519 1 28.4895 15.8346 22.3403
2596 1 23.9151 30.2523 39.6707
1545 1 6.38563 22.3408 22.2215
1530 1 14.4789 20.6734 23.8425
1531 1 15.9319 19.1348 22.2568
1551 1 15.8872 22.2188 22.2516
1533 1 19.134 19.0757 22.3002
1534 1 20.7226 20.6834 23.8036
1535 1 22.366 19.0983 22.2855
1555 1 22.3062 22.1173 22.3105
1536 1 23.8595 20.6401 23.762
1537 1 25.335 19.0623 22.3107
1538 1 26.9407 20.5638 23.8791
1557 1 25.385 22.1297 22.3023
1539 1 28.4829 19.068 22.3477
1566 1 7.94033 27.0046 23.9355
1548 1 11.092 23.8662 23.9217
1568 1 11.1375 26.9882 23.8847
1550 1 14.46 23.8509 23.8417
1570 1 14.4465 27.0088 23.8445
1571 1 15.8377 25.4573 22.2821
1575 1 22.288 25.42 22.2444
1577 1 25.4177 25.3676 22.2501
1579 1 28.5569 25.3851 22.2875
1588 1 11.1568 30.2756 23.923
1591 1 15.885 28.6336 22.2176
1592 1 17.504 30.1809 23.7381
1593 1 19.02 28.7022 22.2814
1594 1 20.6558 30.1683 23.7689
1595 1 22.2425 28.6391 22.3011
1596 1 23.7503 30.1488 23.8357
1598 1 27.0795 30.206 23.8948
1599 1 28.5835 28.6583 22.3389
2594 1 20.7115 30.1712 39.6493
10301 1 31.797 15.8963 34.9241
10161 1 31.7765 25.5029 31.7465
10081 1 31.7323 12.7418 31.8206
2593 1 19.2012 28.5638 38.051
1646 1 8.00056 7.96402 27.0532
1652 1 17.6137 7.93588 27.0615
1660 1 30.2731 8.00844 26.9773
1665 1 6.40239 9.6092 25.4093
1666 1 8.00494 11.1529 27.0214
1687 1 9.56342 12.745 25.4726
1689 1 12.8539 12.9062 25.4809
1867 1 9.53534 9.47439 28.655
1672 1 17.5172 11.1924 27.0067
1691 1 16.0026 12.8812 25.4708
1891 1 15.936 12.7747 28.6127
1673 1 19.187 9.57688 25.482
1674 1 20.6897 11.1302 27.0327
1895 1 22.2838 12.6656 28.5485
1676 1 23.946 11.1401 27.0851
1677 1 25.5343 9.5717 25.4235
1877 1 25.4452 9.56184 28.5981
1897 1 25.4753 12.719 28.563
1679 1 28.6899 9.611 25.4371
1680 1 30.238 11.041 27.0139
1899 1 28.7155 12.7391 28.6251
1705 1 6.43531 15.9804 25.4004
1706 1 8.09823 17.4441 27.0335
1688 1 11.2255 14.4687 26.9918
1707 1 9.64744 16.0038 25.5147
1708 1 11.2605 17.4562 27.0847
1709 1 12.8518 15.9287 25.551
1907 1 9.65144 16.0449 28.6017
1909 1 12.7739 15.9778 28.499
1690 1 14.3984 14.4115 26.975
1692 1 17.4467 14.3767 27.0036
1710 1 14.3922 17.4651 27.0219
1711 1 15.9429 15.8277 25.4187
1911 1 15.8548 15.8505 28.5043
1713 1 19.0914 15.9292 25.3548
1714 1 20.676 17.4136 26.9427
1715 1 22.2 15.9997 25.3513
1913 1 19.0682 15.912 28.5132
1915 1 22.2567 15.9723 28.5474
1698 1 27.0784 14.2751 27.0568
1700 1 30.17 14.3032 27.0783
1719 1 28.5826 15.7795 25.4246
2591 1 15.9705 28.5426 38.1292
2695 1 12.7545 28.5926 41.3459
1726 1 8.00746 20.8141 27.0265
1745 1 6.40943 22.2513 25.4748
1945 1 6.48424 22.2232 28.5686
1747 1 9.60072 22.3563 25.5362
1929 1 12.7822 19.1314 28.6013
1949 1 12.7841 22.2649 28.7037
1730 1 14.4131 20.6189 27.0389
1731 1 15.9281 19.1017 25.446
1732 1 17.4823 20.6703 26.934
1751 1 15.8861 22.1723 25.4428
1931 1 15.8805 19.1449 28.485
1734 1 20.6883 20.7958 26.972
1753 1 19.1524 22.1659 25.4823
1755 1 22.2502 22.1761 25.5017
1953 1 19.1286 22.2699 28.5165
1955 1 22.3359 22.2853 28.5535
1736 1 23.8098 20.7508 27.0094
1737 1 25.4143 19.1412 25.3166
1738 1 27.0376 20.7415 27.0304
1957 1 25.4288 22.3065 28.652
1739 1 28.4891 19.1519 25.4529
1740 1 30.0735 20.7177 27.0406
1759 1 28.5452 22.2294 25.621
1959 1 28.4992 22.3389 28.6121
1746 1 8.05498 23.8597 26.975
1765 1 6.39572 25.4908 25.3547
1748 1 11.116 23.8776 27.027
1767 1 9.61272 25.4147 25.4291
1967 1 9.62527 25.3327 28.6475
1770 1 14.3876 27.0565 27.038
1771 1 15.868 25.4837 25.462
1772 1 17.4545 27.0152 26.9939
1754 1 20.6548 23.7281 27.0242
1773 1 19.0866 25.4172 25.4892
1756 1 23.8426 23.7114 27.1149
1758 1 27.0918 23.7945 27.1439
1776 1 23.8641 27.0521 27.1169
1760 1 30.0647 23.9033 27.1286
1779 1 28.6331 25.3793 25.6392
1780 1 30.193 27.0177 27.2069
1979 1 28.6021 25.4623 28.6894
2589 1 12.7817 28.5894 38.141
1785 1 6.3866 28.6499 25.4438
1786 1 7.94833 30.2711 27.082
1985 1 6.42649 28.7119 28.5383
1989 1 12.7946 28.5467 28.6107
1791 1 15.8849 28.513 25.4524
1991 1 15.8985 28.4712 28.6133
1795 1 22.2823 28.6199 25.4051
1993 1 19.0206 28.5314 28.6085
1995 1 22.355 28.5059 28.63
1997 1 25.4889 28.5162 28.7201
1800 1 30.2543 30.1727 27.1464
1999 1 28.6949 28.6015 28.7268
9981 1 31.742 28.5725 28.6257
9961 1 31.7458 25.5547 28.6834
1846 1 7.99433 7.97781 30.2326
2046 1 7.9694 7.89892 33.4473
1848 1 11.1988 7.95665 30.2013
2048 1 11.1762 7.95635 33.409
1852 1 17.5481 7.93902 30.2353
2050 1 14.4233 8.04105 33.4007
2052 1 17.4404 7.98661 33.4494
1854 1 20.7025 7.87203 30.1897
2058 1 27.0494 7.99759 33.3247
1860 1 30.1534 7.92957 30.2186
2587 1 9.52861 28.5903 38.0932
2065 1 6.41689 9.49465 31.8602
2068 1 11.1811 11.1606 33.3955
2069 1 12.743 9.53569 31.8607
1870 1 14.4499 11.1942 30.2636
1872 1 17.4679 11.2141 30.3067
2071 1 16.0069 9.56683 31.8199
2072 1 17.4516 11.1909 33.3904
2091 1 15.9708 12.6979 31.7685
2075 1 22.2651 9.53931 31.8212
2093 1 19.0041 12.7144 31.8528
2076 1 23.9318 11.1578 33.3587
2077 1 25.4647 9.53938 31.8774
2097 1 25.4653 12.739 31.8681
1880 1 30.1707 11.1851 30.2509
2079 1 28.6537 9.52287 31.789
2099 1 28.6819 12.7817 31.8051
1886 1 8.02084 14.4072 30.2969
1906 1 8.09082 17.4722 30.2649
2105 1 6.40182 15.8776 31.8122
1908 1 11.2458 17.5468 30.154
2107 1 9.55559 15.9994 31.7168
1890 1 14.4267 14.3678 30.122
2092 1 17.5209 14.174 33.3814
2110 1 14.2791 17.5706 33.3736
2112 1 17.5588 17.5481 33.3969
2094 1 20.6848 14.3332 33.3887
2115 1 22.2473 15.9057 31.817
1918 1 27.0393 17.487 30.2745
2098 1 27.0296 14.3044 33.3142
2117 1 25.5154 15.9328 31.792
1900 1 30.1444 14.2431 30.2657
2100 1 30.1865 14.2795 33.3397
2119 1 28.6358 15.8468 31.8418
2120 1 30.1955 17.5059 33.4107
2125 1 6.41837 19.1882 31.8763
2126 1 8.00788 20.7278 33.446
1928 1 11.3144 20.7454 30.2215
2129 1 12.8107 19.1718 31.7167
2147 1 9.59381 22.3622 31.7553
2149 1 12.7835 22.2621 31.6632
1930 1 14.2576 20.6631 30.1443
2130 1 14.2941 20.6805 33.3328
2132 1 17.5938 20.7668 33.4336
2153 1 19.0926 22.315 31.7992
2155 1 22.372 22.3822 31.7939
1936 1 23.8698 20.8636 30.18
1938 1 26.9722 20.8566 30.1755
2138 1 26.9914 20.7821 33.3744
2157 1 25.4651 22.383 31.7588
2139 1 28.5436 19.1561 31.8085
1946 1 8.11933 23.9299 30.2872
2146 1 8.08273 23.9113 33.4234
2165 1 6.57179 25.417 31.8573
2166 1 8.03704 27.0396 33.3898
1948 1 11.1991 23.8712 30.2809
2167 1 9.5748 25.4319 31.8375
2168 1 11.1047 27.0084 33.2998
2169 1 12.7884 25.4616 31.7379
1950 1 14.2735 23.836 30.2427
1952 1 17.5593 23.859 30.2536
1970 1 14.2789 27.0283 30.2265
1972 1 17.4922 26.9812 30.2151
2170 1 14.3286 26.9813 33.2827
2171 1 15.925 25.462 31.7178
2172 1 17.5238 26.9858 33.3738
2154 1 20.7129 23.7923 33.3364
2173 1 19.0543 25.4325 31.7744
1956 1 23.9336 23.7698 30.2614
1958 1 27.0136 23.9046 30.2506
1976 1 23.9577 27.0858 30.2663
1978 1 27.084 27.04 30.2673
2156 1 23.9875 23.8462 33.3438
2158 1 26.963 23.9711 33.3558
2176 1 23.9899 27.045 33.3487
2177 1 25.5007 25.4542 31.7921
2178 1 26.9961 26.9664 33.2661
1980 1 30.1385 27.0101 30.1757
2179 1 28.533 25.5402 31.7852
2180 1 30.137 26.9427 33.247
2693 1 6.41061 28.7079 41.4517
2185 1 6.5105 28.6621 31.8603
2186 1 7.946 30.1805 33.3564
2187 1 9.53803 28.5897 31.8755
2189 1 12.7987 28.5541 31.8071
2190 1 14.4082 30.2385 33.3473
2195 1 22.3788 28.5115 31.8001
1998 1 27.0847 30.0498 30.2135
2197 1 25.5411 28.4853 31.7793
2198 1 27.0278 30.0921 33.2965
2000 1 30.1835 30.1243 30.1554
2199 1 28.5684 28.5493 31.7072
2245 1 6.48634 6.37129 35.0326
2246 1 7.93405 7.92537 36.5881
2247 1 9.53561 6.39591 35.0139
2251 1 15.9774 6.36862 34.9542
2254 1 20.6939 7.81956 36.624
2258 1 27.0566 7.91986 36.6917
2260 1 30.2291 7.95343 36.5301
2585 1 6.43385 28.6242 38.1149
2268 1 11.1836 11.141 36.6192
2287 1 9.6711 12.7157 35.0183
2270 1 14.3853 11.1533 36.6068
2271 1 15.9401 9.53734 34.9044
2291 1 15.9636 12.7679 34.9888
2274 1 20.6238 11.2552 36.5991
2293 1 19.0684 12.7869 34.977
2278 1 27.0491 11.1517 36.5888
2297 1 25.495 12.7757 35.0252
2280 1 30.2641 11.12 36.5645
2306 1 7.87587 17.5556 36.5968
2288 1 11.1933 14.3016 36.5351
2308 1 11.246 17.5235 36.4883
2309 1 12.7635 15.9244 35.0098
2290 1 14.3696 14.2513 36.5651
2292 1 17.5255 14.1958 36.542
2294 1 20.6802 14.299 36.5775
2315 1 22.2799 15.8773 35.0318
2296 1 23.8573 14.3599 36.5769
2298 1 26.9982 14.333 36.5724
2316 1 23.8739 17.5512 36.5746
2300 1 30.2705 14.307 36.5513
2325 1 6.42877 19.0942 34.9769
2326 1 7.96418 20.7557 36.5534
2345 1 6.52879 22.189 34.9336
2328 1 11.144 20.7355 36.491
2329 1 12.8093 19.1497 34.9456
2347 1 9.53099 22.2271 34.9326
2330 1 14.45 20.6871 36.5277
2332 1 17.5868 20.7051 36.5564
2351 1 15.9507 22.1826 34.954
2333 1 19.0651 19.1994 34.9857
2334 1 20.6316 20.6892 36.4874
2335 1 22.3241 19.1897 35.0674
2353 1 19.1531 22.2465 34.9923
2355 1 22.2258 22.3288 34.9785
2336 1 23.8294 20.6873 36.4873
2338 1 27.0449 20.716 36.5661
2357 1 25.5316 22.3256 34.9114
2340 1 30.27 20.7795 36.5607
2365 1 6.56518 25.5035 34.9476
2366 1 8.01306 27.0264 36.5207
2367 1 9.52624 25.5134 34.8689
2350 1 14.4704 23.8104 36.5376
2372 1 17.5549 27.0731 36.5494
2354 1 20.7027 23.7634 36.4887
2374 1 20.7206 27.0675 36.5042
2358 1 27.0012 23.8612 36.4127
2376 1 23.888 27.0329 36.4022
2377 1 25.4822 25.4608 34.8341
2378 1 26.9978 26.9584 36.3335
2360 1 30.3425 23.813 36.5146
2379 1 28.5203 25.4398 34.8557
2385 1 6.52646 28.6063 34.9238
2387 1 9.51026 28.5511 34.8777
2391 1 15.9676 28.537 34.9002
2393 1 19.1438 28.5316 35.0209
2394 1 20.7121 30.1697 36.4783
2395 1 22.3362 28.5641 35.037
2396 1 23.8594 30.2491 36.4615
2397 1 25.4577 28.4857 34.8804
2400 1 30.2204 30.2464 36.3989
9901 1 31.7491 15.8182 28.5809
9861 1 31.7763 9.53517 28.5131
2446 1 7.88179 7.97797 39.6703
2450 1 14.4096 7.9912 39.7002
2454 1 20.6764 7.85759 39.7256
2627 1 19.1567 6.38602 41.2588
2456 1 23.9039 7.90901 39.8031
2465 1 6.43759 9.47798 38.1942
2643 1 6.40405 12.709 41.4275
2467 1 9.56117 9.56032 38.1431
2468 1 11.1688 11.1429 39.6761
2469 1 12.7165 9.6365 38.1167
2489 1 12.7411 12.7576 38.11
2644 1 9.57958 12.6811 41.3966
2471 1 15.867 9.54842 38.1386
2491 1 15.8551 12.781 38.059
2636 1 15.897 9.49609 41.2841
2493 1 19.135 12.7597 38.0469
2495 1 22.2662 12.7782 38.0932
2638 1 22.3392 9.42725 41.3135
2476 1 23.862 11.0807 39.822
2639 1 25.3931 9.44352 41.3516
2479 1 28.6275 9.54098 38.0571
2505 1 6.3605 15.9276 38.0909
2488 1 11.1978 14.2968 39.7752
2655 1 12.823 15.87 41.3939
2490 1 14.3215 14.326 39.731
2512 1 17.461 17.5387 39.7525
2656 1 15.9181 15.9426 41.4032
2514 1 20.7036 17.4979 39.7274
2658 1 22.3252 15.9365 41.3972
2498 1 26.999 14.4236 39.799
2516 1 23.9355 17.4415 39.733
2517 1 25.454 15.9481 38.191
2518 1 26.961 17.4124 39.7428
2659 1 25.4684 15.9387 41.3775
2500 1 30.2613 14.3157 39.7971
2520 1 30.2039 17.4125 39.7825
2660 1 28.5347 15.8939 41.2794
2690 1 28.618 25.4334 41.221
2525 1 6.45616 19.1062 38.1413
2526 1 7.90992 20.7081 39.6977
2545 1 6.50859 22.2039 38.2194
2673 1 6.40115 22.1959 41.2727
2547 1 9.52305 22.2253 38.1156
2530 1 14.4575 20.6122 39.6726
2531 1 15.9339 19.1363 38.1144
2551 1 15.9169 22.1716 38.0532
2666 1 15.9473 18.9901 41.3703
2533 1 19.1655 19.1381 38.1471
2534 1 20.6302 20.6909 39.7099
2553 1 19.2089 22.1847 38.0763
2677 1 19.1854 22.156 41.2499
2678 1 22.2167 22.155 41.2521
2536 1 23.866 20.6321 39.7012
2537 1 25.4154 19.0978 38.1927
2538 1 27.0541 20.6562 39.6814
2540 1 30.2054 20.7788 39.7013
2559 1 28.672 22.1751 38.0461
2680 1 28.6652 22.1241 41.2605
2578 1 27.0555 26.9862 39.6926
2546 1 7.96048 23.8592 39.6457
2565 1 6.49699 25.4417 38.1442
2683 1 6.44351 25.4888 41.3311
2567 1 9.52529 25.4482 38.117
2685 1 12.7428 25.4191 41.3556
2570 1 14.3491 27.0065 39.733
2571 1 15.9624 25.411 38.0755
2686 1 15.9232 25.4133 41.3351
2554 1 20.6446 23.7358 39.7316
2575 1 22.25 25.4145 38.0092
2687 1 19.1183 25.4036 41.3084
9481 1 31.7523 12.6353 22.3596
9501 1 31.7673 15.9015 22.3131
5411 1 15.9478 31.7068 22.1756
5413 1 19.032 31.7113 22.2039
5415 1 22.2723 31.7732 22.2722
5613 1 19.0949 31.7525 25.4
5817 1 25.4838 31.789 28.566
6015 1 22.2975 31.7238 31.8005
14201 1 31.7915 31.7952 34.8949
6019 1 28.6504 31.6958 31.7011
6213 1 19.0857 31.799 35.0004
6215 1 22.331 31.7137 35.0568
6217 1 25.3956 31.7341 34.9658
6219 1 28.7128 31.7773 34.9494
6415 1 22.3382 31.6935 38.1062
6417 1 25.3872 31.772 38.0725
6609 1 25.4138 31.7641 41.2657
13801 1 31.7171 31.726 28.5918
2723 1 7.94278 7.92995 42.9874
2845 1 6.38833 6.44718 44.5538
2846 1 7.97959 7.9965 45.9975
2847 1 9.47713 6.45157 44.5318
2848 1 11.0886 8.03297 46.0553
2726 1 17.4959 7.85516 42.8521
2727 1 20.6714 7.87098 42.8675
2854 1 20.6668 7.82646 46.1229
2728 1 23.914 7.98086 42.8445
2729 1 26.9606 7.91558 42.9076
2730 1 30.2412 7.88195 43.0003
2859 1 28.5719 6.36325 44.4279
2733 1 8.03344 11.2295 42.9258
2866 1 8.07202 11.2381 46.0394
2734 1 11.0338 11.2109 42.962
2867 1 9.50184 9.64152 44.5327
2868 1 11.0653 11.2275 46.0975
2887 1 9.5001 12.7154 44.5174
2891 1 15.8633 12.8724 44.5625
2893 1 19.1272 12.8539 44.5658
2895 1 22.2304 12.7755 44.5149
2876 1 23.823 11.135 46.0657
2877 1 25.4034 9.46331 44.4983
2897 1 25.3875 12.7451 44.5195
2740 1 30.3227 11.1613 42.9665
2743 1 8.01931 14.2819 42.9963
2886 1 8.03154 14.4 46.0997
2905 1 6.38687 15.813 44.6446
2754 1 11.1821 17.4314 42.9812
2907 1 9.55836 15.9015 44.5673
2908 1 11.1985 17.4731 46.2369
2745 1 14.3688 14.4048 42.9332
2755 1 14.4263 17.3947 42.8847
2756 1 17.4931 17.4231 42.9841
2890 1 14.4217 14.3936 46.1254
2892 1 17.4848 14.3821 46.1142
2910 1 14.3993 17.4354 46.2011
2911 1 15.9059 15.931 44.5849
2912 1 17.5232 17.4177 46.1591
2747 1 20.7088 14.3384 43.054
2894 1 20.585 14.3582 46.0746
2913 1 19.0329 15.8729 44.5969
2915 1 22.2475 15.8412 44.4928
2748 1 23.7981 14.339 42.9579
2749 1 26.9977 14.3489 42.9035
2758 1 23.7741 17.3821 42.9102
2759 1 27.0106 17.4164 42.8693
2916 1 23.7099 17.4349 46.1015
2918 1 27.0193 17.5187 46.2196
2926 1 8.03685 20.6086 46.2396
2764 1 11.1815 20.6574 42.9585
2765 1 14.3946 20.5778 42.9196
2930 1 14.3605 20.5914 46.2473
2767 1 20.6899 20.5915 42.916
2933 1 19.0797 18.9902 44.5513
2934 1 20.6203 20.5152 46.1374
2935 1 22.2373 19.0082 44.5516
2938 1 26.9853 20.5507 46.2152
2770 1 30.1644 20.69 42.8614
2939 1 28.5123 19.034 44.5643
2783 1 7.88815 27.1325 42.9389
2774 1 11.1767 23.8725 42.8759
2784 1 11.1831 27.0534 42.8772
2948 1 11.2099 23.7874 46.2451
2775 1 14.3794 23.8911 42.8929
2786 1 17.4736 26.9237 42.9106
2971 1 15.9029 25.3662 44.4432
2787 1 20.7132 27.0016 42.9691
2974 1 20.7659 27.0034 46.0562
2975 1 22.2636 25.3922 44.5039
2778 1 23.8073 23.8051 42.9032
2956 1 23.8499 23.8372 46.2044
2958 1 26.942 23.8181 46.2046
2960 1 30.2281 23.8727 46.1602
2980 1 30.2095 27.0871 46.1739
2793 1 7.87471 30.2385 42.9061
2987 1 9.51479 28.6385 44.4752
2988 1 11.1607 30.2256 46.1498
2795 1 14.2776 30.1768 42.8841
2991 1 15.8868 28.5853 44.4778
2797 1 20.695 30.1657 43.0271
2993 1 19.1632 28.5096 44.4549
2995 1 22.1976 28.5709 44.4486
2798 1 23.885 30.1584 42.9259
2997 1 25.4074 28.6187 44.4729
2800 1 30.1729 30.185 42.9335
2999 1 28.7256 28.6293 44.534
3000 1 30.1619 30.1827 46.1393
3050 1 14.3271 8.00151 49.2159
3051 1 15.9432 6.38234 47.6898
3052 1 17.4768 7.93968 49.1584
3066 1 7.92039 11.2335 49.298
3068 1 11.1325 11.2065 49.2022
3069 1 12.6483 9.63596 47.6816
3087 1 9.55456 12.7258 47.6751
3071 1 15.9135 9.50738 47.7301
3091 1 15.9073 12.9505 47.6633
3075 1 22.2975 9.60428 47.6628
3093 1 19.0449 12.9033 47.6224
3076 1 23.7461 11.1387 49.3444
3078 1 27.0855 11.2277 49.3425
3080 1 30.1715 11.1952 49.2707
3099 1 28.6237 12.6998 47.8362
3105 1 6.37261 15.9327 47.6998
3106 1 8.02199 17.4412 49.2526
3088 1 11.0852 14.4377 49.2051
3107 1 9.6395 15.9792 47.7595
3108 1 11.1864 17.4864 49.177
3109 1 12.774 15.9535 47.6602
3090 1 14.4031 14.4435 49.1599
3092 1 17.4921 14.4635 49.185
3111 1 15.9789 15.9079 47.627
3112 1 17.559 17.4612 49.2262
3113 1 18.959 15.9342 47.6831
3114 1 20.5843 17.4723 49.3303
3115 1 22.2412 15.9459 47.7164
3096 1 23.7475 14.4134 49.3614
3116 1 23.7734 17.4586 49.3644
3100 1 30.0676 14.3133 49.2657
3119 1 28.5795 15.9331 47.8048
3120 1 30.0631 17.459 49.2497
3125 1 6.37151 19.0342 47.7642
3127 1 9.64916 19.0211 47.7678
3128 1 11.1561 20.6961 49.2248
3129 1 12.8097 19.0539 47.6851
3147 1 9.66556 22.2637 47.7593
3149 1 12.7379 22.187 47.7664
3130 1 14.3575 20.6291 49.1684
3131 1 15.9582 19.0163 47.6856
3132 1 17.6012 20.6019 49.2462
3151 1 15.8789 22.0726 47.7443
3133 1 19.075 19.0062 47.8089
3134 1 20.5714 20.5545 49.3617
3153 1 19.135 22.0629 47.7624
3137 1 25.4362 19.013 47.7041
3138 1 26.9605 20.5977 49.2982
3157 1 25.4567 22.2476 47.7481
3139 1 28.4793 19.07 47.751
3148 1 11.1665 23.8289 49.3339
3168 1 11.2328 26.9811 49.3643
3169 1 12.6491 25.3592 47.7529
3171 1 15.8962 25.3871 47.7215
3174 1 20.7417 26.976 49.2736
3175 1 22.2822 25.3372 47.713
3156 1 23.891 23.7936 49.2395
3158 1 26.9653 23.7946 49.3012
3177 1 25.4442 25.2707 47.744
3178 1 27.0004 27.0116 49.2986
3180 1 30.2677 27.027 49.2466
3186 1 7.92279 30.2165 49.3007
3188 1 11.2733 30.2241 49.2989
3189 1 12.6644 28.6867 47.7977
3190 1 14.1837 30.2131 49.3417
3195 1 22.2138 28.4803 47.7028
3199 1 28.7089 28.5323 47.6978
11681 1 31.735 12.7124 57.2341
11661 1 31.782 9.53384 57.2342
3246 1 7.87927 8.0429 52.5981
3248 1 11.0615 7.98222 52.5461
3249 1 12.7258 6.43699 50.8821
3447 1 9.54153 6.46742 54.0629
3252 1 17.5616 8.00189 52.5569
3453 1 19.0622 6.37109 54.051
3258 1 27.0927 7.90275 52.5211
3259 1 28.5743 6.3855 51.0021
3260 1 30.1296 7.95998 52.5388
3459 1 28.5612 6.44022 54.0603
3265 1 6.37129 9.62027 51.0108
3266 1 7.87078 11.1563 52.5032
3285 1 6.43652 12.6376 50.8705
3268 1 11.0518 11.1781 52.5317
3467 1 9.5193 9.52308 53.9852
3487 1 9.55173 12.6927 53.9406
3471 1 15.9413 9.49136 54.0867
3274 1 20.6824 11.181 52.4168
3275 1 22.3087 9.65692 50.8935
3295 1 22.3411 12.7708 50.8492
3473 1 19.0994 9.55945 54.0306
3493 1 19.1257 12.7599 53.9985
3276 1 23.8339 11.1869 52.4295
3278 1 27.0658 11.2415 52.5638
3497 1 25.4777 12.7262 53.9401
3299 1 28.5219 12.7046 50.9051
3479 1 28.5106 9.53843 54.0707
3499 1 28.5164 12.6935 54.0787
3305 1 6.41958 16.0227 50.8421
3306 1 7.9798 17.4627 52.3998
3288 1 11.1109 14.3657 52.4289
3307 1 9.61533 15.9393 50.8007
3509 1 12.7911 15.9551 54.0529
3290 1 14.3427 14.4425 52.445
3292 1 17.54 14.4448 52.3587
3311 1 16.023 15.9201 50.8105
3312 1 17.589 17.5505 52.3716
3313 1 19.0323 16.0319 50.812
3314 1 20.6911 17.557 52.3629
3315 1 22.2616 15.9819 50.7825
3515 1 22.2568 15.9367 53.9146
3296 1 23.8428 14.4346 52.4112
3298 1 26.9703 14.3873 52.4917
3317 1 25.3433 15.8768 50.909
3318 1 26.917 17.4686 52.4987
3517 1 25.4703 15.9222 53.9301
3319 1 28.5275 15.9575 50.9608
3320 1 30.014 17.4745 52.5647
3519 1 28.4846 15.9849 53.9857
3328 1 11.1215 20.7244 52.4672
3347 1 9.68797 22.27 50.901
3529 1 12.7781 19.0382 54.0944
3547 1 9.6421 22.3146 54.0335
3332 1 17.6135 20.564 52.4461
3531 1 16.0764 19.0585 54.0615
3333 1 19.1153 19.0476 50.8648
3334 1 20.6652 20.5394 52.452
3335 1 22.1147 19.0176 50.8637
3353 1 19.0976 22.0999 50.9402
3533 1 19.096 19.1062 53.9645
3535 1 22.1755 19.1314 54.0041
3555 1 22.242 22.1595 54.0889
3337 1 25.4655 19.0605 50.9253
3338 1 26.9493 20.6167 52.5334
3537 1 25.5045 19.0901 54.0414
3557 1 25.4758 22.229 54.1217
3340 1 30.1134 20.6492 52.5281
3359 1 28.4877 22.2171 50.9555
3539 1 28.5111 19.1082 54.0336
3365 1 6.40753 25.4472 50.9416
3366 1 7.91706 26.9637 52.4828
3348 1 11.0488 23.8852 52.4386
3367 1 9.66689 25.4658 50.9465
3368 1 11.1449 26.9553 52.406
3369 1 12.6525 25.4096 50.9421
3567 1 9.61907 25.4568 54.044
3350 1 14.2898 23.8459 52.4513
3352 1 17.5582 23.744 52.4421
3370 1 14.26 27.021 52.4498
3372 1 17.497 27.0442 52.5056
3354 1 20.7249 23.7481 52.5102
3374 1 20.7037 26.9728 52.4996
3575 1 22.3108 25.4679 54.1057
3358 1 26.9705 23.7811 52.5352
3376 1 23.9389 26.9493 52.5707
3378 1 26.9306 27.0257 52.5438
3577 1 25.4128 25.3988 54.1027
3385 1 6.41438 28.6753 50.9242
3389 1 12.694 28.5866 50.8645
3392 1 17.4536 30.2092 52.5206
3591 1 15.9346 28.6604 54.0716
3393 1 19.0921 28.5166 50.967
3396 1 23.9956 30.1014 52.4526
3397 1 25.4865 28.5338 51.0015
3398 1 26.9691 30.1217 52.4541
3597 1 25.4654 28.5611 54.0001
3400 1 30.2574 30.1741 52.5103
3448 1 11.0154 7.93085 55.6565
3450 1 14.3975 8.05917 55.6835
3452 1 17.5242 7.99104 55.6018
3653 1 19.0295 6.37729 57.1838
3456 1 23.9347 7.98739 55.7112
3458 1 27.0938 7.97081 55.722
3474 1 20.6548 11.1395 55.5864
3675 1 22.2724 9.51206 57.1553
3695 1 22.263 12.7225 57.1726
3478 1 27.1196 11.1217 55.644
3677 1 25.5487 9.46944 57.146
3699 1 28.6513 12.6987 57.1775
3508 1 11.314 17.5059 55.6409
3709 1 12.7243 16.028 57.2137
3492 1 17.4774 14.358 55.6353
3510 1 14.3136 17.5035 55.6493
3512 1 17.5569 17.5946 55.5879
3711 1 15.9817 15.9366 57.1857
3715 1 22.2563 15.9124 57.1868
3518 1 27.0061 17.4986 55.4929
3500 1 30.1257 14.2531 55.6882
3719 1 28.6033 15.8985 57.1521
3532 1 17.5698 20.5532 55.5964
3534 1 20.7186 20.5717 55.5839
3733 1 19.0806 19.1057 57.1577
3735 1 22.2304 19.1234 57.1363
3536 1 23.809 20.6579 55.5217
3538 1 26.9593 20.6578 55.5329
3540 1 30.1495 20.6142 55.6104
3548 1 11.0786 23.8419 55.6174
3568 1 11.1173 27.0197 55.6558
3552 1 17.5015 23.8202 55.6922
3574 1 20.808 26.9509 55.7042
3556 1 23.8691 23.9138 55.6139
3558 1 26.9172 23.8993 55.6346
3576 1 23.88 26.9228 55.6983
3777 1 25.3359 25.413 57.2276
3560 1 30.1895 23.9617 55.7225
3580 1 30.2478 26.9833 55.7236
3590 1 14.331 30.2185 55.5598
3592 1 17.4209 30.1882 55.5788
3795 1 22.3093 28.419 57.2345
3598 1 27.0051 30.1466 55.7116
3600 1 30.2621 30.1756 55.7359
11581 1 31.7411 28.7071 54.1272
10841 1 31.7681 6.36719 44.4759
11081 1 31.7629 12.7356 47.7775
11101 1 31.712 15.8594 47.7798
11121 1 31.7594 19.047 47.6968
11161 1 31.7377 25.4769 47.7208
11181 1 31.7018 28.5894 47.6691
11481 1 31.7229 12.7216 54.1332
11341 1 31.7515 22.2556 50.9276
11521 1 31.6796 19.1087 54.1223
11361 1 31.7871 25.4555 50.8515
11561 1 31.6917 25.4435 54.1799
6813 1 19.0892 31.7605 44.4563
6815 1 22.2658 31.6885 44.4266
6819 1 28.6924 31.7441 44.4805
7009 1 12.6952 31.8 47.8023
7015 1 22.296 31.7992 47.7303
7019 1 28.6471 31.7825 47.6823
7217 1 25.4603 31.7832 50.9816
7615 1 22.3348 31.774 57.1847
7617 1 25.5171 31.7535 57.1213
7619 1 28.6525 31.6649 57.186
13261 1 31.7357 41.2783 19.2681
13241 1 31.6882 38.1458 19.1455
12881 1 31.7622 44.5497 12.5888
12841 1 31.6747 38.0953 12.7781
4407 1 9.60725 31.8116 6.40667
4408 1 11.119 33.3715 7.85391
4409 1 12.6973 31.88 6.39415
4427 1 9.5717 34.8945 6.37035
4410 1 14.2481 33.4125 7.89619
4412 1 17.523 33.2942 7.9947
4431 1 15.8403 34.8535 6.39052
13021 1 31.7745 35.0074 15.9615
13001 1 31.7824 31.8087 15.9006
4417 1 25.4306 31.8196 6.39633
4418 1 27.0856 33.3766 7.98816
4420 1 30.2378 33.3613 8.08122
4439 1 28.6464 34.9812 6.49559
4426 1 7.89212 36.5938 7.96625
4450 1 14.2551 39.758 7.96971
4454 1 20.6813 39.7054 7.99354
4455 1 22.2707 38.1823 6.40772
4456 1 23.9148 39.6508 8.0218
4457 1 25.4559 38.1744 6.416
4458 1 27.0615 39.7449 8.02372
4440 1 30.1737 36.5912 8.01935
4459 1 28.6011 38.15 6.41959
4469 1 12.7266 41.3682 6.40418
4487 1 9.54851 44.6903 6.42508
4489 1 12.7105 44.7157 6.37269
4474 1 20.6016 42.8761 7.94686
4478 1 27.0953 42.8938 7.91878
4479 1 28.5561 41.4238 6.3625
4486 1 7.92906 46.1527 7.87236
4506 1 7.89958 49.353 7.93491
4488 1 11.0856 46.1425 7.87807
4507 1 9.53247 47.7484 6.43417
4508 1 11.1403 49.3936 7.97403
4490 1 14.3115 46.137 7.92276
4492 1 17.4016 46.1396 7.92866
4510 1 14.2649 49.3921 7.92622
4514 1 20.6741 49.2826 7.93925
4496 1 23.8536 46.1403 7.79685
4518 1 26.9762 49.2741 7.88689
4529 1 12.7253 50.8587 6.41889
4530 1 14.2807 52.4301 7.87048
4531 1 15.8549 50.9064 6.37988
4532 1 17.4424 52.4866 7.82547
4551 1 15.8668 54.0473 6.44553
4533 1 19.0363 50.9562 6.37927
4534 1 20.5873 52.5017 7.94342
4553 1 18.9878 53.967 6.43052
4536 1 23.9202 52.4327 8.03377
4537 1 25.4861 50.7924 6.39741
4538 1 26.9865 52.4612 8.01305
4559 1 28.6479 54.0761 6.43733
4550 1 14.3136 55.6901 8.00271
4552 1 17.4514 55.6522 7.91711
4556 1 23.8427 55.6006 8.0184
4558 1 27.08 55.5303 7.99109
4560 1 30.2361 55.597 8.00514
12761 1 31.7601 57.2142 9.54973
12741 1 31.7517 54.0936 9.63435
4629 1 12.7054 34.9428 9.54759
12701 1 31.7682 47.6468 9.5967
12681 1 31.7677 44.5587 9.6365
4614 1 20.6395 33.3204 11.1573
4633 1 19.081 34.9366 9.62037
12641 1 31.7194 38.0453 9.51998
4618 1 27.0739 33.3415 11.1295
4619 1 28.6916 31.8001 9.61469
4620 1 30.2591 33.2777 11.0751
4626 1 7.90921 36.608 11.2522
4628 1 11.134 36.6096 11.1901
4648 1 11.0988 39.6539 11.2601
4649 1 12.71 38.1407 9.68675
4630 1 14.1937 36.5827 11.1089
4632 1 17.5144 36.4928 11.1107
4650 1 14.2351 39.6697 11.197
4652 1 17.5071 39.8136 11.1984
4634 1 20.7406 36.5503 11.1664
4654 1 20.6671 39.6993 11.1476
4655 1 22.2146 38.1859 9.57026
4638 1 27.0065 36.6772 11.1055
4657 1 25.5238 38.2298 9.55496
4658 1 26.9804 39.7567 11.0566
4640 1 30.2409 36.6038 11.0832
4659 1 28.5743 38.1435 9.58569
4666 1 7.87098 42.9162 11.2395
4673 1 19.1119 41.2742 9.56246
4677 1 25.5492 41.2943 9.5123
4678 1 26.9915 42.8236 11.0642
4679 1 28.5092 41.3521 9.53672
4680 1 30.221 42.9677 11.1001
4690 1 14.335 46.2075 11.2056
4692 1 17.3835 46.1508 11.1574
4710 1 14.305 49.2566 11.1588
4711 1 15.8078 47.6848 9.5289
4694 1 20.7188 46.1037 11.1118
4714 1 20.6947 49.2624 11.0695
4715 1 22.2318 47.768 9.55198
4716 1 23.8489 49.2986 11.0353
4718 1 27.0381 49.3358 11.0816
4700 1 30.2614 46.1175 11.0573
4719 1 28.5684 47.7406 9.53036
4725 1 6.37422 50.8659 9.49309
4726 1 7.96468 52.4555 11.1486
4727 1 9.4954 50.8696 9.52343
4729 1 12.743 50.8303 9.47089
4747 1 9.5089 54.002 9.57575
4732 1 17.4169 52.4508 11.1345
4734 1 20.7152 52.5532 11.1182
4755 1 22.2204 54.0132 9.51319
4737 1 25.4797 50.8797 9.49336
4738 1 27.034 52.5292 11.1082
4757 1 25.4891 53.9881 9.47105
4740 1 30.1732 52.5514 11.1117
4759 1 28.631 54.0457 9.55784
4750 1 14.241 55.7308 11.1115
4752 1 17.4594 55.7215 11.1209
4771 1 15.9045 57.2218 9.52189
4760 1 30.2221 55.6295 11.126
4808 1 11.1516 33.4618 14.354
12621 1 31.7123 34.9243 9.52713
4827 1 9.61796 35.0865 12.7096
5027 1 9.5849 34.9954 15.8533
5029 1 12.6758 34.9962 15.8104
12561 1 31.7427 57.19 6.39507
4812 1 17.4962 33.216 14.3793
4835 1 22.2108 35.0154 12.7751
5035 1 22.2787 34.9331 15.8915
4820 1 30.2926 33.3062 14.3634
4828 1 11.1123 36.5961 14.3024
4847 1 9.63807 38.1514 12.73
4848 1 11.1014 39.7432 14.3231
4849 1 12.6566 38.1254 12.7135
5049 1 12.6824 38.1416 15.8248
4830 1 14.1869 36.5956 14.3344
4852 1 17.4401 39.803 14.2867
4834 1 20.7395 36.4881 14.2908
4854 1 20.6135 39.6832 14.2944
4855 1 22.1596 38.0804 12.7555
5053 1 19.1066 38.1534 15.7963
4836 1 23.7798 36.5144 14.2825
4857 1 25.5315 38.1729 12.7045
4858 1 26.9772 39.7343 14.2731
4840 1 30.2252 36.58 14.3423
4860 1 30.1562 39.6682 14.3252
5059 1 28.7074 38.1713 15.9114
4867 1 9.56204 41.3255 12.813
4868 1 11.0337 42.8471 14.431
5067 1 9.55979 41.3889 15.9673
5069 1 12.6397 41.3581 15.8753
5087 1 9.57332 44.5003 15.9646
4870 1 14.3433 42.8204 14.34
4871 1 15.9084 41.2765 12.7918
4872 1 17.4054 42.8533 14.2732
4891 1 15.8401 44.5351 12.7604
5071 1 15.908 41.3417 15.8638
4873 1 18.9966 41.2205 12.763
4895 1 22.2056 44.6066 12.7449
5093 1 19.0705 44.4534 15.9593
4877 1 25.5466 41.328 12.7056
4878 1 26.9801 42.9587 14.3464
5097 1 25.4593 44.5325 15.8346
5099 1 28.5098 44.4904 15.9035
4886 1 7.91916 46.0957 14.3776
4888 1 11.0785 46.1426 14.335
4907 1 9.55607 47.6949 12.843
4908 1 11.1057 49.2636 14.2829
4909 1 12.7323 47.6841 12.7701
4890 1 14.3042 46.1336 14.2471
4911 1 15.8029 47.6363 12.658
4894 1 20.6812 46.08 14.3242
5115 1 22.2385 47.6602 15.8806
4896 1 23.8402 46.1276 14.3831
4898 1 26.9686 46.0941 14.3931
4916 1 23.8357 49.2511 14.41
4918 1 27.0494 49.3448 14.3236
5117 1 25.4256 47.7199 15.8114
4920 1 30.1234 49.3983 14.2906
4945 1 6.40058 53.9972 12.7447
4927 1 9.52499 50.878 12.7569
4947 1 9.47468 54.0241 12.7494
4949 1 12.7456 54.0309 12.7314
5129 1 12.6457 50.8105 15.9694
5147 1 9.56573 54.0103 15.9785
5149 1 12.6476 53.9906 15.9573
4930 1 14.267 52.4546 14.4009
4931 1 15.8413 50.8987 12.678
5131 1 15.8065 50.8861 15.9407
5151 1 15.8579 53.9901 15.917
4955 1 22.2394 54.0988 12.7589
5135 1 22.2883 50.8361 15.9104
4957 1 25.4698 54.0242 12.6997
4939 1 28.6045 50.8806 12.6759
4959 1 28.72 54.0504 12.6323
5139 1 28.5858 50.8996 15.9271
4946 1 7.98977 55.5375 14.3077
4965 1 6.37055 57.1189 12.7044
4969 1 12.7657 57.2336 12.6828
5167 1 9.55705 57.1228 15.9439
4954 1 20.7266 55.752 14.276
4956 1 23.7757 55.6771 14.2704
4960 1 30.223 55.6747 14.2271
4979 1 28.738 57.1702 12.734
5006 1 7.9526 33.4614 17.5006
5206 1 7.85933 33.4349 20.754
5225 1 6.3907 34.9119 19.1253
5210 1 14.3207 33.2827 20.7225
5212 1 17.5543 33.2289 20.6747
5214 1 20.6382 33.2185 20.6248
5233 1 19.061 34.8012 19.1756
5016 1 23.8083 33.2816 17.4642
5216 1 23.8715 33.3374 20.7172
5218 1 27.0473 33.4963 20.6954
5237 1 25.505 34.8936 19.2045
5219 1 28.5899 31.8005 19.1033
5239 1 28.6536 35.0551 19.1676
5046 1 7.90581 39.7683 17.5206
5226 1 7.90083 36.551 20.6955
5245 1 6.37204 38.2634 19.088
5248 1 11.1639 39.7359 20.722
5249 1 12.7573 38.2243 19.1569
5050 1 14.2276 39.723 17.4593
5230 1 14.2833 36.5559 20.7618
5232 1 17.4951 36.5391 20.7333
5250 1 14.2692 39.7089 20.7218
5255 1 22.3204 38.1344 19.0685
5056 1 23.8631 39.7269 17.5638
5238 1 27.1198 36.4527 20.6864
5258 1 27.1346 39.8246 20.6782
5040 1 30.2178 36.5511 17.6236
5060 1 30.1569 39.6729 17.6555
5240 1 30.2234 36.591 20.5949
5259 1 28.7352 38.1478 19.1614
5260 1 30.2724 39.7588 20.6694
5066 1 7.94899 43.006 17.5375
5265 1 6.37778 41.3926 19.1092
5266 1 7.88674 42.9293 20.6002
5285 1 6.41262 44.5047 19.1246
5068 1 11.025 42.9121 17.4402
5268 1 11.1079 42.9105 20.6621
5287 1 9.53356 44.4707 19.0936
5072 1 17.4749 42.884 17.5097
5270 1 14.336 42.9465 20.6735
5272 1 17.4548 42.9667 20.6849
5291 1 15.9028 44.4356 19.1824
5074 1 20.6149 42.936 17.5101
5273 1 19.0488 41.4334 19.0724
5274 1 20.6489 42.9541 20.6561
5295 1 22.1993 44.5355 19.0764
5078 1 27.0522 42.9461 17.5341
5277 1 25.5061 41.3255 19.0854
5279 1 28.6877 41.2378 19.184
5280 1 30.2112 42.7792 20.7433
5299 1 28.5885 44.517 19.1126
5106 1 7.94299 49.3288 17.5634
5286 1 7.96966 46.0762 20.5708
5306 1 7.95008 49.3878 20.6404
5088 1 11.0029 46.0419 17.528
5108 1 11.0963 49.3164 17.56
5288 1 11.0267 46.0981 20.5899
5307 1 9.51419 47.6742 19.0717
5110 1 14.2277 49.3791 17.4988
5290 1 14.3796 46.0496 20.7019
5292 1 17.4393 46.0139 20.7424
5094 1 20.6973 46.1353 17.56
5114 1 20.7294 49.24 17.5472
5313 1 19.1104 47.6604 19.0563
5315 1 22.2203 47.6909 19.0514
5118 1 27.0217 49.3767 17.522
5296 1 23.8011 46.1383 20.6661
5298 1 27.0529 46.0624 20.7153
5318 1 27.0268 49.3501 20.6383
5100 1 30.0916 46.0682 17.5448
5320 1 30.148 49.2807 20.7225
5128 1 11.1381 52.4651 17.5317
5327 1 9.49838 50.8016 19.0348
5329 1 12.656 50.8501 19.0098
5347 1 9.62519 54.0525 19.0666
5349 1 12.6343 54.0404 19.1018
5132 1 17.3422 52.4327 17.4984
5330 1 14.2783 52.4254 20.6505
5331 1 15.82 50.8991 19.0787
5335 1 22.2433 50.9006 19.1108
5138 1 27.0412 52.4058 17.562
5336 1 23.8918 52.5645 20.7022
5337 1 25.5098 50.8708 19.0805
5357 1 25.4957 54.1049 19.1094
5140 1 30.1681 52.4657 17.4971
5339 1 28.5868 50.9235 19.0836
5340 1 30.1456 52.4575 20.6606
5148 1 11.0725 55.5361 17.5101
5348 1 11.0143 55.5883 20.6551
5367 1 9.5639 57.1627 19.159
5350 1 14.2893 55.5981 20.6587
5352 1 17.5211 55.692 20.7031
5371 1 15.9056 57.2142 19.1231
5154 1 20.6629 55.7515 17.5232
5354 1 20.6143 55.718 20.7637
5373 1 19.114 57.2399 19.0654
5158 1 26.9776 55.6578 17.5746
5358 1 26.9056 55.6801 20.7057
5360 1 30.2022 55.6979 20.7525
5425 1 6.38695 34.9233 22.2504
14681 1 31.7673 57.1344 41.4055
5408 1 11.1466 33.4028 24.0048
5429 1 12.7386 34.9462 22.3123
5416 1 23.9178 33.4074 23.842
5418 1 27.0522 33.5037 23.8898
5437 1 25.5262 34.9137 22.324
5420 1 30.1377 33.4483 23.9191
5439 1 28.5467 34.9891 22.261
5426 1 8.05672 36.568 23.9364
5446 1 8.02079 39.6901 23.8825
5447 1 9.53485 38.1867 22.393
5448 1 11.1174 39.6395 23.9137
5432 1 17.4174 36.5814 23.8307
5451 1 15.9251 38.0662 22.2929
5452 1 17.4547 39.6184 23.8267
5434 1 20.6728 36.552 23.8475
5453 1 19.0135 38.041 22.3542
5436 1 23.9882 36.4984 23.9098
5438 1 27.0511 36.437 23.8596
5460 1 30.2918 39.7825 23.7117
5469 1 12.7076 41.2919 22.19
5491 1 15.8675 44.5338 22.1731
5493 1 19.0562 44.5077 22.1849
5477 1 25.5384 41.3498 22.2956
5478 1 27.0047 42.941 23.8037
5497 1 25.4783 44.5792 22.2734
5479 1 28.7599 41.2988 22.2408
5480 1 30.3042 42.9243 23.7887
5506 1 7.91717 49.3691 23.8324
5490 1 14.3347 46.0975 23.7936
5510 1 14.3646 49.2879 23.785
5511 1 15.8469 47.6586 22.301
5512 1 17.4962 49.2712 23.8712
5494 1 20.6973 46.1514 23.929
5515 1 22.2991 47.6363 22.3115
5496 1 23.8285 46.1199 23.8998
5500 1 30.2195 46.1028 23.8397
5519 1 28.6262 47.7362 22.2647
5520 1 30.1228 49.2156 23.8457
5525 1 6.36159 50.9038 22.2519
5527 1 9.46442 50.8465 22.2745
5528 1 11.0127 52.4958 23.809
5547 1 9.57454 54.1053 22.317
5530 1 14.3732 52.446 23.7874
5531 1 15.8505 50.8866 22.3752
5532 1 17.5075 52.4851 23.8628
5551 1 15.8282 54.0047 22.2709
5553 1 19.0644 54.105 22.2506
5555 1 22.3561 54.0985 22.3309
5536 1 23.8208 52.5561 23.8908
5538 1 27.0077 52.4947 23.9053
5557 1 25.439 54.1012 22.3442
5546 1 7.97095 55.6602 23.8398
5548 1 10.9895 55.6235 23.8379
5567 1 9.53323 57.1542 22.2769
5573 1 19.118 57.2073 22.2075
5556 1 23.8181 55.6522 23.8221
5558 1 26.9964 55.688 23.8425
5560 1 30.1615 55.7324 23.94
5606 1 8.06613 33.3764 27.0984
5805 1 6.4344 31.8815 28.5838
5607 1 9.56231 31.8766 25.4898
5608 1 11.0694 33.4599 27.0253
5609 1 12.6393 31.8637 25.4354
5627 1 9.55693 34.9625 25.5825
5629 1 12.6622 34.9329 25.595
5807 1 9.5154 31.9488 28.5958
5827 1 9.57515 34.9672 28.6173
5829 1 12.6394 35.0409 28.6066
5610 1 14.2208 33.4501 26.9637
5612 1 17.4783 33.3728 26.9432
5631 1 15.8614 34.928 25.492
5614 1 20.6894 33.2953 26.9889
5815 1 22.2788 31.8087 28.5473
5616 1 23.9029 33.3204 27.0286
5618 1 27.0782 33.3668 26.9217
5637 1 25.5017 34.9374 25.371
5619 1 28.6064 31.8854 25.4551
5620 1 30.1941 33.3739 26.9376
5639 1 28.5946 34.9268 25.4248
5626 1 8.09129 36.5041 27.0717
5628 1 11.1552 36.4848 27.0754
5647 1 9.54536 38.0899 25.4926
5649 1 12.6944 38.0634 25.5442
5849 1 12.6624 38.0064 28.6864
5630 1 14.1712 36.5278 27.0263
5651 1 15.9359 38.1297 25.4399
5652 1 17.438 39.7542 27.0946
5634 1 20.7446 36.62 27.0136
5654 1 20.7119 39.7072 27.0952
5655 1 22.2328 38.1165 25.4955
5855 1 22.2631 38.2246 28.5594
5638 1 27.0186 36.5007 26.8826
5656 1 23.8145 39.6811 27.0519
5657 1 25.5171 38.0627 25.4121
5640 1 30.2389 36.476 26.9195
5665 1 6.41694 41.3306 25.4489
5666 1 7.92087 42.9052 27.0794
5865 1 6.38359 41.331 28.7309
5668 1 11.1478 42.9188 27.1084
5689 1 12.7319 44.5278 25.5558
5869 1 12.6202 41.3862 28.6489
5887 1 9.61708 44.5174 28.699
5670 1 14.2517 42.879 27.0879
5871 1 15.8899 41.2726 28.6275
5674 1 20.6929 42.9796 27.0624
5693 1 19.1374 44.5316 25.451
5695 1 22.3029 44.6268 25.4391
5873 1 19.0894 41.2795 28.6298
5895 1 22.2507 44.4603 28.6702
5678 1 26.9967 42.976 27.072
5697 1 25.4876 44.5836 25.5136
5897 1 25.5227 44.538 28.6336
5680 1 30.2684 42.978 27.0354
5879 1 28.6448 41.4441 28.6159
5706 1 7.98345 49.3191 27.095
5688 1 11.0977 46.1362 27.1301
5707 1 9.51863 47.711 25.5075
5907 1 9.56305 47.6635 28.7435
5909 1 12.677 47.6006 28.6688
5690 1 14.2187 46.1025 27.0472
5710 1 14.3069 49.2935 27.0912
5712 1 17.5487 49.3506 27.0299
5713 1 19.0482 47.7563 25.4263
5715 1 22.2966 47.6438 25.4181
5696 1 23.8406 46.067 27.0108
5698 1 27.0172 46.0992 27.0402
5719 1 28.6613 47.6842 25.4231
5720 1 30.1285 49.2663 27.0008
5919 1 28.5688 47.7143 28.6513
5725 1 6.36684 50.8529 25.4319
5925 1 6.40024 50.7698 28.5642
5728 1 11.0785 52.4574 27.0196
5747 1 9.60957 54.0791 25.3768
5927 1 9.53065 50.7831 28.6452
5730 1 14.3531 52.408 27.0625
5931 1 15.8692 50.8767 28.5932
5733 1 19.0239 50.8718 25.4551
5734 1 20.6923 52.5198 27.0268
5735 1 22.2548 50.9912 25.4663
5753 1 19.093 54.0569 25.4928
5755 1 22.3363 54.1105 25.4407
5933 1 19.0531 50.907 28.6013
5935 1 22.2629 50.9244 28.5991
5953 1 19.1194 54.0932 28.5706
5955 1 22.2775 54.1641 28.5994
5737 1 25.4487 50.9839 25.3865
5937 1 25.4552 50.8607 28.6664
5739 1 28.6676 50.8664 25.4527
5740 1 30.1564 52.5079 27.0236
5759 1 28.6253 54.1417 25.4044
5959 1 28.7032 54.1365 28.569
5748 1 11.0566 55.6594 26.9532
5767 1 9.56376 57.1459 25.3915
5752 1 17.609 55.6442 27.0742
5975 1 22.3471 57.1895 28.5775
5756 1 23.7698 55.7201 27.0239
5977 1 25.3798 57.2245 28.5713
5760 1 30.1882 55.7157 26.9872
5779 1 28.6364 57.2159 25.4071
5806 1 7.99736 33.396 30.1736
6005 1 6.41436 31.919 31.7619
5808 1 11.0442 33.5153 30.1212
6008 1 11.0831 33.5484 33.3835
6027 1 9.61946 35.0381 31.8218
5812 1 17.447 33.4033 30.3005
6010 1 14.4078 33.443 33.3713
6011 1 15.8825 31.8506 31.852
6012 1 17.4173 33.3739 33.3831
6031 1 15.8757 34.9039 31.8318
14301 1 31.7389 47.7097 34.991
6033 1 18.9996 34.8905 31.8034
6035 1 22.3156 34.9747 31.8198
6037 1 25.5253 35.018 31.8029
5820 1 30.2542 33.3053 30.1931
6020 1 30.2342 33.3561 33.4267
5846 1 7.90026 39.7487 30.2993
6026 1 8.06167 36.592 33.4256
5828 1 11.1188 36.5752 30.2355
5848 1 11.1728 39.68 30.2768
6028 1 11.0893 36.6356 33.4189
6047 1 9.63297 38.1382 31.8507
6048 1 11.1637 39.6681 33.3807
6049 1 12.5741 38.1196 31.8056
5830 1 14.1604 36.5879 30.2018
5852 1 17.5038 39.7702 30.2393
6053 1 19.0228 38.1792 31.7994
5838 1 27.0106 36.4939 30.2255
5856 1 23.7936 39.7603 30.227
6036 1 23.8485 36.5179 33.3563
6038 1 27.0597 36.4662 33.3786
6056 1 23.8039 39.786 33.4535
6058 1 27.0645 39.8445 33.4206
6065 1 6.36689 41.2969 31.7937
6066 1 7.93145 42.999 33.3274
6085 1 6.44695 44.5777 31.8031
5868 1 11.1155 42.9625 30.2597
6069 1 12.5907 41.2765 31.7844
6087 1 9.53121 44.5501 31.7637
6089 1 12.6874 44.5724 31.7308
5874 1 20.6977 42.8873 30.3081
6073 1 19.0599 41.3312 31.8019
6075 1 22.2825 41.3506 31.7683
6095 1 22.2595 44.4973 31.8342
5876 1 23.7678 42.9659 30.2635
5878 1 27.052 42.8903 30.1946
6078 1 27.0773 42.8627 33.4341
5880 1 30.1758 42.8878 30.1714
6079 1 28.5716 41.3872 31.8067
5886 1 8.01077 46.0601 30.2668
5906 1 7.99479 49.2522 30.1549
6086 1 7.88545 46.0822 33.3428
6105 1 6.45181 47.6654 31.8125
6106 1 7.92843 49.1974 33.4041
5888 1 11.1059 46.0954 30.2247
5908 1 11.1418 49.1723 30.1628
6108 1 11.1634 49.1925 33.381
6109 1 12.7032 47.6629 31.7892
5890 1 14.1813 46.155 30.2908
6090 1 14.2248 46.0968 33.388
6092 1 17.4332 46.0328 33.4519
6110 1 14.2738 49.1516 33.3169
6111 1 15.8257 47.6589 31.9039
6112 1 17.4529 49.2802 33.3446
6094 1 20.7001 45.9781 33.4554
6114 1 20.6212 49.331 33.3713
5898 1 27.0583 46.1378 30.191
5916 1 23.836 49.3631 30.1816
5918 1 27.0834 49.2435 30.1972
6096 1 23.817 46.0613 33.4261
6098 1 27.0607 46.1289 33.4141
6116 1 23.8944 49.2766 33.4339
5920 1 30.1728 49.2481 30.1937
6119 1 28.572 47.7104 31.7656
6120 1 30.1809 49.2404 33.4181
6126 1 7.97054 52.4118 33.4426
6128 1 11.1115 52.4263 33.3852
6149 1 12.6728 54.0281 31.8131
5930 1 14.3414 52.3821 30.2138
5932 1 17.5036 52.348 30.1589
6130 1 14.2974 52.4562 33.3487
6131 1 15.8253 50.853 31.8245
6133 1 19.0425 50.8261 31.8013
6135 1 22.3332 50.8261 31.8239
6136 1 23.9195 52.4754 33.3827
6157 1 25.4227 54.1068 31.747
6140 1 30.1684 52.4126 33.409
5946 1 7.96802 55.7189 30.2805
6146 1 7.95409 55.7537 33.3974
6165 1 6.47964 57.2214 31.7376
5948 1 11.1208 55.6671 30.2605
6148 1 11.0891 55.7323 33.3907
6167 1 9.56168 57.2225 31.7682
5954 1 20.6962 55.7036 30.0914
6175 1 22.289 57.189 31.6769
5956 1 23.851 55.7588 30.1616
5958 1 26.9691 55.6952 30.192
6177 1 25.4399 57.2058 31.6913
5960 1 30.2199 55.6594 30.1179
6205 1 6.40201 31.8634 34.8896
6225 1 6.3745 35.1362 34.9285
6227 1 9.5792 35.1617 34.9289
6229 1 12.64 35.0496 34.8896
6211 1 15.9329 31.8631 34.8911
6212 1 17.4891 33.3327 36.4635
6231 1 15.9435 34.9226 34.9461
6216 1 23.8959 33.2656 36.5707
6220 1 30.2317 33.3778 36.385
6239 1 28.6752 34.8977 34.9321
6226 1 8.07356 36.6516 36.5601
6246 1 8.04146 39.7083 36.6271
6228 1 11.0902 36.6365 36.5116
6247 1 9.56032 38.1146 34.9776
6249 1 12.6089 38.1515 34.9617
6232 1 17.4332 36.6543 36.5754
6250 1 14.3093 39.7399 36.5118
6251 1 15.8916 38.1903 35.072
6252 1 17.4903 39.7605 36.5861
6254 1 20.6533 39.7795 36.6763
6255 1 22.3128 38.2434 35.014
6256 1 23.8286 39.7681 36.6431
6258 1 26.9472 39.827 36.5376
6260 1 30.3294 39.8089 36.4622
6266 1 8.03308 42.96 36.5664
6285 1 6.43997 44.5482 35.0163
6269 1 12.6983 41.273 34.9897
6289 1 12.798 44.5688 34.9735
6271 1 15.9083 41.2807 35.0769
6272 1 17.5353 42.9405 36.5339
6291 1 15.9306 44.5847 35.0221
6273 1 19.0481 41.339 35.1618
6274 1 20.6061 42.908 36.6076
6293 1 19.0099 44.494 35.0448
6295 1 22.2157 44.5128 34.9688
6277 1 25.4441 41.2557 34.951
6279 1 28.5609 41.2836 34.9508
6299 1 28.5886 44.5306 34.9372
6286 1 7.91439 46.1474 36.4993
6305 1 6.39106 47.682 34.9733
6308 1 11.0608 49.2465 36.5267
6309 1 12.7814 47.6988 34.9229
6290 1 14.3741 46.0163 36.5121
6292 1 17.4934 45.9826 36.5972
6310 1 14.3003 49.1637 36.5077
6314 1 20.6885 49.2004 36.6159
6317 1 25.3923 47.6679 34.9189
6300 1 30.2538 46.074 36.4997
6320 1 30.1325 49.2643 36.5915
6326 1 7.9553 52.4457 36.5927
6345 1 6.42296 54.0065 34.9705
6327 1 9.54218 50.8353 34.8994
6351 1 15.8189 54.0053 34.9289
6333 1 19.1153 50.7159 34.9292
6336 1 23.9588 52.4143 36.6087
6337 1 25.3441 50.8944 34.9764
6357 1 25.3582 54.014 35.043
6339 1 28.7091 50.856 35.0219
6340 1 30.1116 52.3659 36.5974
6365 1 6.4418 57.1895 34.9514
6348 1 11.0864 55.6329 36.4781
6367 1 9.59241 57.2273 34.9052
6369 1 12.558 57.211 34.9259
6350 1 14.2752 55.55 36.5276
6356 1 23.9281 55.6986 36.5923
6427 1 9.58747 35.2031 38.0952
6429 1 12.6687 35.127 38.1269
6604 1 9.49242 31.837 41.3496
6605 1 12.7898 31.8257 41.3769
6615 1 12.7301 35.0985 41.3864
6412 1 17.55 33.4239 39.7634
13761 1 31.7332 57.2297 25.5629
6617 1 19.0605 34.9349 41.2721
6618 1 22.2772 35.0394 41.2355
6418 1 26.9258 33.4043 39.6827
6437 1 25.4774 35.0135 38.1985
13881 1 31.7772 44.4038 28.5851
6619 1 25.4701 35.03 41.1973
6420 1 30.2869 33.4248 39.7234
6445 1 6.45122 38.2105 38.1127
6446 1 8.04978 39.7852 39.664
6428 1 11.1541 36.6227 39.681
6447 1 9.54174 38.2446 38.1253
6448 1 11.1462 39.8673 39.7136
6625 1 12.6267 38.1562 41.331
6451 1 15.9347 38.1971 38.0425
6626 1 15.8439 38.1301 41.3323
6434 1 20.7068 36.6563 39.7774
6453 1 19.1519 38.2253 38.1403
6454 1 20.6961 39.6814 39.6457
6455 1 22.2677 38.2561 38.2136
6627 1 19.1985 38.196 41.2531
6628 1 22.2463 38.2039 41.2175
6436 1 23.8352 36.5926 39.7264
6438 1 26.9591 36.5712 39.6995
6456 1 23.8195 39.7396 39.6177
6457 1 25.3829 38.2222 38.1473
6460 1 30.3025 39.7465 39.7073
6630 1 28.6252 38.1693 41.2306
6466 1 8.10823 42.8993 39.6686
6467 1 9.53594 41.3495 38.1969
6468 1 11.1384 42.8283 39.7083
6469 1 12.7183 41.3443 38.222
6487 1 9.527 44.4457 38.1136
6634 1 9.59139 41.3411 41.2188
6635 1 12.6464 41.3264 41.2525
6470 1 14.3146 42.8138 39.7236
6491 1 15.9599 44.5437 38.0832
6636 1 15.9035 41.375 41.2736
6473 1 19.1677 41.3281 38.0771
6474 1 20.6969 42.8916 39.562
6475 1 22.2148 41.2887 38.1774
6493 1 19.0624 44.4349 38.0703
6495 1 22.2472 44.3983 38.178
6476 1 23.8729 42.8857 39.607
6477 1 25.3581 41.2773 38.1068
6497 1 25.3733 44.5198 38.1859
6639 1 25.3546 41.3161 41.2227
6480 1 30.3058 42.9062 39.6469
6506 1 8.01581 49.3135 39.6167
6507 1 9.5946 47.7487 38.1036
6508 1 11.075 49.2738 39.6873
6655 1 12.7287 47.6625 41.4026
6490 1 14.3857 46.061 39.6523
6492 1 17.5194 46.0561 39.5663
6511 1 15.9161 47.5115 38.1045
6513 1 19.0986 47.6291 38.1097
6514 1 20.7862 49.2257 39.6983
6515 1 22.2633 47.7663 38.1749
6658 1 22.3099 47.7769 41.2206
6496 1 23.8198 46.1682 39.6891
6516 1 23.8789 49.3367 39.7352
6518 1 26.9905 49.3676 39.7734
6659 1 25.5551 47.8379 41.2958
6500 1 30.2005 46.1534 39.7303
6519 1 28.6717 47.6974 38.136
6660 1 28.6224 47.7518 41.444
6527 1 9.54176 50.7883 38.1235
6547 1 9.46251 54.0506 38.0537
6549 1 12.762 54.0735 38.1017
6664 1 9.56068 50.7639 41.2349
6530 1 14.3609 52.504 39.6859
6532 1 17.4885 52.4413 39.7664
6551 1 15.8485 54.0136 38.2037
6676 1 15.8842 54.013 41.3319
6534 1 20.7669 52.4182 39.7477
6535 1 22.3056 50.8544 38.2193
6667 1 19.2208 50.8668 41.3199
6678 1 22.3986 54.0261 41.2598
6536 1 23.9773 52.4795 39.7334
6537 1 25.3994 50.9248 38.2801
6538 1 26.9451 52.4666 39.7829
6557 1 25.4114 54.0395 38.272
6669 1 25.5451 50.9431 41.2453
6679 1 25.5401 54.0919 41.2926
6539 1 28.5951 50.9055 38.2267
6540 1 30.1142 52.4295 39.776
6680 1 28.5867 54.0443 41.3493
6546 1 7.86631 55.5926 39.6297
6684 1 9.44322 57.217 41.307
6550 1 14.3433 55.5108 39.675
6573 1 19.1004 57.2116 38.1486
6575 1 22.4561 57.2193 38.1318
6687 1 19.1033 57.1859 41.3675
6556 1 24.004 55.5982 39.7486
6558 1 26.9886 55.5912 39.8654
6577 1 25.3912 57.2002 38.1987
6689 1 25.5233 57.0955 41.3726
6560 1 30.1687 55.6589 39.8576
6690 1 28.6087 57.0829 41.3938
13481 1 31.7566 44.4404 22.3895
13501 1 31.6911 47.7514 22.3411
13681 1 31.7766 44.4596 25.3852
13621 1 31.7161 34.9535 25.4298
6806 1 7.89661 33.4484 46.0926
6829 1 12.742 35.1048 44.475
6705 1 14.2519 33.4723 42.9331
6706 1 17.5228 33.3938 42.9295
6831 1 15.8049 34.9855 44.4523
6835 1 22.2451 34.9708 44.4825
6818 1 27.0763 33.3453 46.1104
6837 1 25.4469 34.9449 44.5244
6710 1 30.2225 33.3768 42.9029
6713 1 7.82265 36.5997 42.864
6714 1 11.2599 36.6279 42.899
6724 1 11.1963 39.7699 42.819
6828 1 11.1271 36.6038 46.0521
6848 1 11.117 39.7436 46.0959
6849 1 12.6591 38.1209 44.4951
6715 1 14.2109 36.5718 42.9155
6830 1 14.2567 36.5156 46.0123
6850 1 14.2578 39.7957 46.0794
6727 1 20.7121 39.6449 42.8247
6855 1 22.265 38.2455 44.4246
6728 1 23.8303 39.7316 42.8601
6856 1 23.8892 39.81 46.0731
6860 1 30.2145 39.8289 46.062
6733 1 7.98496 42.9478 42.9677
6865 1 6.42764 41.3269 44.5002
6866 1 7.96857 43.0267 46.0661
6885 1 6.54271 44.4732 44.5058
6868 1 11.0935 43 46.0377
6887 1 9.54724 44.5396 44.5257
6889 1 12.6773 44.5548 44.5247
6736 1 17.4288 42.8642 42.8899
6870 1 14.2919 42.8432 46.1127
6871 1 15.8026 41.3312 44.5347
6874 1 20.678 42.9757 46.08
6893 1 19.0963 44.4769 44.4845
6876 1 23.9331 42.9294 46.0896
6877 1 25.3812 41.3519 44.5237
6740 1 30.2879 42.9741 42.9238
6879 1 28.742 41.3782 44.4879
6743 1 8.05187 46.0466 43.0045
6886 1 8.07726 45.9954 46.0872
6906 1 8.07312 49.2057 46.1338
6744 1 11.1285 46.0599 42.973
6754 1 11.1414 49.206 42.8833
6888 1 11.0532 46.0557 46.0594
6907 1 9.61553 47.5934 44.5437
6908 1 11.0863 49.1324 46.1592
6745 1 14.2336 46.0584 42.9015
6755 1 14.3045 49.2266 42.9025
6890 1 14.2619 46.0574 46.1342
6912 1 17.5037 49.3381 46.0968
6747 1 20.7254 46.1336 42.8515
6757 1 20.6904 49.369 42.8608
6749 1 27.1136 46.3333 42.8889
6759 1 27.0603 49.3477 42.9488
6917 1 25.6143 47.8478 44.4263
6918 1 27.1167 49.3795 46.0047
6750 1 30.2748 46.2314 42.959
6760 1 30.1254 49.2493 42.9705
6919 1 28.6792 47.8527 44.4402
6920 1 30.1676 49.3034 46.0432
6765 1 14.4215 52.4532 42.9479
6930 1 14.3825 52.438 46.065
6931 1 15.8536 50.8625 44.5082
6951 1 15.8793 54.0221 44.4675
6767 1 20.7175 52.4426 42.8729
6933 1 19.1575 50.8779 44.471
6769 1 27.0255 52.486 42.8746
6936 1 23.9319 52.5346 46.0852
6937 1 25.615 50.9914 44.4788
6938 1 27.0838 52.5078 46.0484
6770 1 30.1351 52.4854 42.9379
6939 1 28.5841 50.8804 44.4516
6773 1 7.91214 55.6295 42.8484
6948 1 11.14 55.6449 46.2325
6775 1 14.4057 55.5483 42.9162
6776 1 17.5057 55.5769 42.898
6954 1 20.7816 55.6879 46.094
6975 1 22.3908 57.2211 44.6271
6778 1 24.0173 55.6504 42.872
6779 1 27.0609 55.6858 42.8501
6956 1 23.9942 55.7473 46.0807
6958 1 27.0536 55.7358 46.1024
6977 1 25.5568 57.1915 44.5581
6780 1 30.1824 55.6884 42.9075
6979 1 28.547 57.2353 44.4814
7008 1 11.1682 33.3847 49.2563
7027 1 9.52254 35.0095 47.6453
7010 1 14.3018 33.3932 49.3139
7012 1 17.4546 33.4463 49.3258
7031 1 15.8232 34.9667 47.8078
15541 1 31.7176 54.1 54.0873
7033 1 19.0104 34.9462 47.7596
7035 1 22.2989 34.985 47.7535
7016 1 23.8185 33.3611 49.2514
15521 1 31.7179 50.9448 54.0561
7020 1 30.2591 33.339 49.284
7039 1 28.6029 34.9401 47.7328
7026 1 7.97275 36.5812 49.2167
7046 1 7.92944 39.7753 49.2927
7047 1 9.55239 38.2238 47.6572
7048 1 11.0826 39.749 49.1998
7030 1 14.3361 36.549 49.3581
7052 1 17.4706 39.6468 49.2771
7053 1 19.0362 38.2197 47.7664
7054 1 20.6124 39.6443 49.2977
7036 1 23.8139 36.6187 49.3395
7038 1 27.041 36.6214 49.3582
7056 1 23.9039 39.7386 49.3113
7058 1 27.0726 39.7527 49.365
7060 1 30.2229 39.7728 49.4231
7066 1 8.00486 42.9719 49.2348
7085 1 6.5085 44.4735 47.72
7068 1 11.0816 42.9598 49.2161
7069 1 12.667 41.3444 47.6139
7087 1 9.51941 44.4768 47.5924
7070 1 14.3071 42.9229 49.1801
7071 1 15.7996 41.3613 47.6855
7072 1 17.3939 42.9625 49.2624
7091 1 15.7905 44.4124 47.6829
7074 1 20.6887 42.9674 49.2642
7095 1 22.2522 44.4664 47.6545
7077 1 25.4344 41.334 47.6949
7078 1 27.114 42.9855 49.3467
7080 1 30.2179 42.9199 49.316
7086 1 8.079 46.0269 49.2057
7107 1 9.57249 47.6235 47.5865
7108 1 11.1173 49.1662 49.2573
7109 1 12.6394 47.6309 47.5962
7111 1 15.8817 47.6586 47.6481
7094 1 20.6419 46.1147 49.304
7117 1 25.5137 47.8129 47.6204
7100 1 30.2068 46.1675 49.1958
7119 1 28.6734 47.8 47.5874
7127 1 9.6005 50.7208 47.6674
7147 1 9.56973 54.0655 47.6836
7149 1 12.7516 54.0424 47.6971
7132 1 17.5696 52.4811 49.3667
7133 1 19.0699 50.9552 47.7599
7134 1 20.623 52.4672 49.28
7135 1 22.3309 51.042 47.7137
7153 1 19.0942 54.0334 47.796
7136 1 23.895 52.5095 49.2742
7138 1 26.9624 52.5879 49.1943
7157 1 25.4314 54.1003 47.609
7139 1 28.5421 50.899 47.5314
7159 1 28.4796 54.079 47.5631
7167 1 9.59255 57.224 47.7237
7169 1 12.7124 57.2118 47.7184
7150 1 14.2962 55.5722 49.3481
7152 1 17.5056 55.5739 49.3775
7156 1 23.9968 55.6743 49.2303
7208 1 11.1804 33.3796 52.4724
7209 1 12.7556 31.8435 50.8085
7227 1 9.54903 34.979 50.8226
7407 1 9.59482 31.8113 53.9773
7409 1 12.8129 31.8656 54.0271
7427 1 9.56033 35.0065 53.996
7429 1 12.7722 34.8897 53.982
7210 1 14.3249 33.3864 52.5312
7212 1 17.4012 33.3937 52.4956
7231 1 15.8914 34.9018 50.9062
7411 1 15.9173 31.8411 54.0784
7431 1 15.9194 34.8691 54.0097
7213 1 19.0236 31.8488 50.9759
7214 1 20.6725 33.3654 52.4809
7435 1 22.2553 34.8799 53.9907
7216 1 23.8844 33.3615 52.4705
15501 1 31.7721 47.6579 54.0385
7218 1 27.0537 33.3513 52.4754
7439 1 28.5655 34.9057 54.0229
7226 1 7.97567 36.5221 52.3755
7249 1 12.7425 38.1352 50.8169
7449 1 12.7567 38.1478 54.0265
7232 1 17.363 36.5545 52.4479
7250 1 14.3081 39.6131 52.4524
7251 1 15.8514 38.1171 50.8714
7451 1 15.8709 38.1779 54.0404
7234 1 20.6963 36.5858 52.4659
7253 1 19.0337 38.1228 50.8783
7255 1 22.2512 38.137 50.811
7455 1 22.2263 38.1359 54.0861
7238 1 27.0441 36.6053 52.4221
7257 1 25.5154 38.1483 50.8321
7258 1 27.0591 39.7313 52.3757
7259 1 28.5756 38.2279 50.8778
7260 1 30.2419 39.7778 52.3552
7267 1 9.52465 41.3268 50.6612
7287 1 9.47881 44.4994 50.7094
7289 1 12.6955 44.4163 50.7137
7467 1 9.57478 41.3205 54.0181
7291 1 15.8694 44.4235 50.7727
7471 1 15.8278 41.1824 54.0596
7491 1 15.8592 44.4821 54.033
7293 1 19.0904 44.4846 50.7832
7473 1 19.0706 41.2323 54.1081
7495 1 22.2852 44.5112 54.0189
7278 1 27.0524 43.0223 52.4214
7297 1 25.5523 44.5542 50.9165
7477 1 25.4999 41.3205 53.9844
7497 1 25.5139 44.5737 53.9168
7279 1 28.6132 41.3084 50.8254
7299 1 28.5824 44.4838 50.8229
7499 1 28.5659 44.4914 53.9488
7286 1 8.00316 46.1503 52.3805
7505 1 6.36224 47.7575 54.0489
7307 1 9.51407 47.6142 50.8042
7309 1 12.6714 47.6939 50.7968
7507 1 9.46979 47.6874 54.0881
7311 1 15.8945 47.6833 50.862
7511 1 15.8622 47.7325 54.0712
7313 1 19.0907 47.7003 50.8368
7513 1 19.0707 47.7335 54.034
7296 1 23.9764 46.1137 52.4306
7298 1 27.0216 46.116 52.4188
7317 1 25.4563 47.6838 50.901
7517 1 25.4625 47.6679 53.9384
7319 1 28.6038 47.6904 50.8364
7519 1 28.5708 47.6666 53.9857
7326 1 7.96658 52.4268 52.5192
7327 1 9.547 50.8989 50.9287
7328 1 11.0466 52.4157 52.4689
7349 1 12.7773 54.0574 50.9422
7527 1 9.50356 50.8706 54.0521
7547 1 9.54826 54.0829 54.056
7330 1 14.419 52.4804 52.4221
7331 1 15.9575 50.987 50.9235
7332 1 17.4715 52.4531 52.4095
7351 1 15.9085 54.0343 50.8856
7531 1 15.8935 50.9295 53.9858
7551 1 15.8652 54.0166 53.9246
7333 1 19.0706 51.0514 50.8753
7334 1 20.6495 52.4191 52.3927
7335 1 22.2624 51.0531 50.8422
7353 1 19.0629 53.9988 50.8489
7533 1 19.1121 51.0004 53.9922
7535 1 22.2648 51.0389 54.0061
7336 1 23.8692 52.5005 52.3619
7337 1 25.428 51.0716 50.8175
7338 1 26.9267 52.5537 52.386
7357 1 25.4015 54.0281 50.7567
7557 1 25.4239 54.0484 54.0167
7340 1 30.1891 52.4517 52.5076
7539 1 28.6082 51.015 54.0319
7348 1 11.0622 55.6309 52.48
7567 1 9.52607 57.1662 54.1207
7350 1 14.3975 55.5738 52.4093
7371 1 15.8969 57.1374 50.8684
7354 1 20.6487 55.6372 52.4088
15261 1 31.7466 41.2928 50.8363
15241 1 31.7995 38.241 50.9358
7410 1 14.3491 33.4114 55.4994
7412 1 17.4187 33.4384 55.6222
15121 1 31.7553 50.8659 47.5339
7631 1 15.8953 34.9152 57.1274
14941 1 31.7711 54.0467 44.3847
7633 1 19.0827 34.9683 57.2303
7416 1 23.8785 33.3419 55.7245
7418 1 27.047 33.3109 55.7008
7637 1 25.4417 34.8953 57.2028
14901 1 31.7725 47.7579 44.4161
7426 1 7.9694 36.5202 55.6159
7428 1 11.1957 36.5874 55.558
7647 1 9.60897 38.1211 57.2312
7649 1 12.7043 38.1761 57.2097
7450 1 14.2909 39.6365 55.607
7452 1 17.4175 39.6667 55.5932
7651 1 15.8476 38.2274 57.151
7454 1 20.6324 39.6538 55.6012
7653 1 19.1338 38.1702 57.2248
7456 1 23.8964 39.7519 55.6095
7468 1 11.125 42.8218 55.6767
7474 1 20.6668 42.8907 55.5902
7677 1 25.4643 41.2881 57.2128
7480 1 30.197 42.9186 55.6863
7679 1 28.6993 41.3786 57.2163
7699 1 28.6956 44.4476 57.2119
7486 1 7.94046 46.2026 55.5298
7506 1 7.89214 49.3415 55.5287
7508 1 11.0226 49.2875 55.5903
7510 1 14.4185 49.2774 55.6614
7534 1 20.6539 52.4628 55.5575
7753 1 19.0901 54.0782 57.1876
7536 1 23.8789 52.5005 55.567
7538 1 27.0321 52.4837 55.5781
7737 1 25.5471 50.9456 57.2192
7540 1 30.2561 52.4578 55.5376
7546 1 7.96576 55.6961 55.6308
7548 1 11.0204 55.6614 55.6311
7556 1 23.9089 55.6935 55.5986
7560 1 30.2154 55.7483 55.6199
13213 1 50.8653 31.6729 19.1272
13211 1 47.7178 31.7826 19.0876
13205 1 38.1498 31.7771 19.1272
12815 1 54.1243 31.7372 12.6354
12813 1 50.824 31.772 12.7214
13011 1 47.6824 31.7529 15.8177
13003 1 35.058 31.7616 15.9071
12803 1 34.9875 31.7637 12.8
12607 1 41.326 31.795 9.59288
12605 1 38.2382 31.7819 9.60297
12411 1 47.736 31.7967 6.43894
9196 1 55.6422 30.0885 17.56
12407 1 41.372 31.7404 6.4244
9395 1 54.0108 28.6123 19.0756
9394 1 52.4248 30.2379 20.7794
9374 1 52.5029 27.0912 20.7059
9373 1 50.8932 25.544 19.0477
9174 1 52.4996 27.03 17.5023
9194 1 52.5157 30.1463 17.5547
8442 1 33.4706 7.88635 8.03879
8443 1 34.9828 6.37655 6.40897
8444 1 36.5254 7.87905 8.09218
8450 1 46.1729 7.91871 8.00104
8456 1 55.7794 7.97675 7.95611
8461 1 31.8858 9.53567 6.44288
8462 1 33.4324 11.0798 7.94183
8483 1 34.9669 12.739 6.37316
8466 1 39.6921 11.0704 8.04153
8467 1 41.3299 9.52011 6.44766
8468 1 42.9353 11.0833 7.99924
8471 1 47.7104 9.50338 6.39567
8472 1 49.2447 11.1275 7.89657
8491 1 47.7646 12.678 6.36474
8482 1 33.4254 14.2829 7.88698
9392 1 49.3758 30.2636 20.6924
8502 1 33.3277 17.4929 7.95275
8484 1 36.5135 14.2793 7.88817
8486 1 39.6905 14.2562 8.0085
8505 1 38.111 15.8079 6.37589
8488 1 43.0346 14.279 8.06931
8508 1 42.9949 17.5009 8.01118
8511 1 47.7334 15.8899 6.3658
8512 1 49.3904 17.4897 7.97523
8494 1 52.4868 14.2962 7.89334
8514 1 52.456 17.5685 7.9429
8522 1 33.2687 20.7035 8.00957
8526 1 39.7504 20.6325 7.93717
8527 1 41.319 19.0716 6.37952
8530 1 46.0806 20.7134 7.99924
8542 1 33.28 23.9339 8.05083
8544 1 36.4808 23.937 7.92869
8564 1 36.4478 27.0462 7.96403
8565 1 38.016 25.4854 6.38002
8566 1 39.7805 27.1041 7.88883
8548 1 42.953 23.859 7.92215
8567 1 41.3507 25.5032 6.41066
8568 1 42.823 27.1342 7.91994
8552 1 49.3153 24.0134 7.95684
8571 1 47.7837 25.4358 6.39721
8572 1 49.3255 26.9927 7.95678
8554 1 52.5042 23.9764 8.02156
8573 1 50.8549 25.4758 6.48302
8574 1 52.3977 27.0215 7.99562
8576 1 55.7475 27.0741 7.91115
9192 1 49.2285 30.2772 17.5217
8586 1 39.8519 30.2342 7.98949
8587 1 41.2862 28.6895 6.45647
8588 1 42.8357 30.2658 7.98128
8590 1 46.1811 30.2694 7.92458
8591 1 47.7576 28.694 6.4067
8592 1 49.2893 30.2525 7.87058
8641 1 31.8926 6.37279 9.58348
8642 1 33.4536 7.86795 11.15
8643 1 35.0047 6.44933 9.55873
8644 1 36.5956 7.90424 11.1192
8645 1 38.0517 6.41128 9.56917
8646 1 39.6095 7.95427 11.1658
8650 1 46.0795 7.97123 11.1599
8651 1 47.5995 6.36997 9.53147
8653 1 50.8522 6.37303 9.54156
8654 1 52.4402 7.94797 11.1332
8656 1 55.754 7.95123 11.1162
8663 1 34.9827 9.39104 9.55375
8665 1 38.1431 9.43747 9.6078
8685 1 38.1658 12.7109 9.5327
8668 1 42.9501 11.1603 11.2079
8689 1 44.4913 12.7145 9.65997
8670 1 46.0579 11.1212 11.1383
8671 1 47.6456 9.54722 9.5946
8672 1 49.3002 11.1104 11.1752
8675 1 54.1376 9.45847 9.56406
8682 1 33.3387 14.2537 11.2263
8702 1 33.2728 17.493 11.1534
8684 1 36.5555 14.2045 11.1626
8688 1 43.0004 14.3467 11.2015
8708 1 43.0273 17.4407 11.2045
8709 1 44.4732 15.8519 9.63714
8690 1 46.0225 14.3551 11.1443
8712 1 49.3597 17.475 11.1692
8713 1 50.902 15.9668 9.48038
8716 1 55.6963 17.4867 11.1237
9388 1 42.8318 30.1785 20.7239
8724 1 36.5146 20.6965 11.1248
8725 1 38.157 19.1206 9.53727
8729 1 44.5106 19.0398 9.55756
8749 1 44.5126 22.315 9.54181
8733 1 50.8873 18.9996 9.51763
8755 1 54.0692 22.392 9.58913
8742 1 33.3251 23.9581 11.1407
9387 1 41.2802 28.5697 19.1551
8763 1 34.8816 25.4221 9.50425
8748 1 42.9459 23.8665 11.1775
8752 1 49.3256 23.9701 11.1253
8770 1 46.1114 27.0425 11.1312
8771 1 47.7842 25.4624 9.5299
8754 1 52.5323 23.8926 11.1076
8773 1 50.8998 25.4292 9.47737
8775 1 54.0354 25.4178 9.52094
8756 1 55.6377 23.7991 11.1294
8782 1 33.2757 30.2198 11.1564
8783 1 34.8977 28.6456 9.58318
8786 1 39.7517 30.2732 11.0663
8787 1 41.3039 28.7149 9.45494
8793 1 50.8906 28.6109 9.45775
8794 1 52.5074 30.18 11.1583
8796 1 55.6641 30.1886 11.1678
9386 1 39.7504 30.199 20.7221
8843 1 34.9992 6.37171 12.7558
9186 1 39.6821 30.1976 17.5417
9043 1 35.0215 6.36526 15.8231
8844 1 36.562 7.95923 14.3142
8845 1 38.0361 6.46522 12.7223
8849 1 44.5142 6.38915 12.7246
9047 1 41.3503 6.43189 15.9659
9049 1 44.4281 6.37821 15.9518
8850 1 45.9933 7.95748 14.3206
8852 1 49.2326 7.96487 14.3089
9051 1 47.7197 6.39427 15.9294
8854 1 52.4807 7.88762 14.2811
8857 1 57.2354 6.36756 12.7236
8861 1 31.8572 9.5186 12.695
8881 1 31.8209 12.7078 12.6752
8883 1 35.0411 12.7533 12.7337
9063 1 35.1398 9.51946 15.9165
9081 1 31.8136 12.7357 15.9859
8864 1 36.6082 11.0105 14.3545
8865 1 38.1262 9.50452 12.7834
8866 1 39.7964 11.1061 14.3931
9065 1 38.1461 9.59639 15.9401
8868 1 42.8816 11.198 14.3772
8869 1 44.5443 9.62028 12.7606
8887 1 41.3792 12.686 12.7924
9067 1 41.3225 9.62878 15.9704
9087 1 41.318 12.6216 15.8759
9089 1 44.5267 12.6337 15.8516
8870 1 46.0494 11.1811 14.3597
9091 1 47.637 12.6849 15.8463
8873 1 50.8843 9.51605 12.747
8874 1 52.4093 11.121 14.2483
8893 1 50.8913 12.7385 12.7888
9184 1 36.4847 30.2415 17.5322
9383 1 35.0105 28.6492 19.1067
9103 1 35.0031 15.8085 15.9318
8884 1 36.4944 14.271 14.3348
8886 1 39.8699 14.2311 14.3246
8904 1 36.5132 17.4286 14.3636
8907 1 41.446 15.8964 12.7258
8908 1 43.0077 17.5179 14.3046
8909 1 44.5173 15.896 12.7439
8890 1 46.1055 14.3099 14.3672
8892 1 49.2991 14.3245 14.315
8910 1 46.0887 17.5407 14.2966
8912 1 49.2562 17.4628 14.3286
9111 1 47.6739 15.9235 15.8042
8894 1 52.4995 14.3875 14.2694
8913 1 50.8673 15.9251 12.8435
8914 1 52.529 17.3831 14.2965
8915 1 54.1221 15.9177 12.8218
9115 1 54.0918 15.8992 15.9064
8896 1 55.6392 14.3589 14.2943
8916 1 55.6067 17.4132 14.3029
8922 1 33.3102 20.7481 14.3307
9381 1 31.8184 28.6004 19.0832
8943 1 34.8995 22.3033 12.7296
8926 1 39.8458 20.7096 14.3574
8928 1 42.9995 20.631 14.4054
8929 1 44.4764 19.0158 12.8372
8947 1 41.3983 22.2884 12.8098
9127 1 41.4563 19.1 15.8845
9129 1 44.5329 19.0288 15.9299
9149 1 44.5136 22.2863 15.915
8931 1 47.715 18.9973 12.8115
9151 1 47.6967 22.2383 15.9963
8934 1 52.4756 20.7329 14.3229
8955 1 54.0966 22.3328 12.7118
9153 1 50.8056 22.2689 15.983
8962 1 33.3024 27.0331 14.3268
8963 1 34.8865 25.4802 12.7749
9163 1 34.9935 25.4764 15.8961
8944 1 36.4779 23.9887 14.359
8966 1 39.6431 27.0859 14.434
9165 1 38.1633 25.5157 15.9709
8948 1 42.9312 23.8722 14.3422
8969 1 44.5181 25.4449 12.7665
9167 1 41.3634 25.5197 16.0171
8950 1 46.1103 23.8405 14.4118
8970 1 46.1313 27.0164 14.3669
9171 1 47.6776 25.4377 15.92
8973 1 50.8813 25.3994 12.6711
9173 1 50.8332 25.5091 16.0424
9175 1 54.0754 25.5151 15.9615
8956 1 55.7122 23.8518 14.3385
9183 1 35.007 28.7174 15.9105
8984 1 36.4946 30.1931 14.3772
8985 1 38.1528 28.7129 12.833
8986 1 39.6429 30.1684 14.3509
9185 1 38.1815 28.7058 15.9449
8990 1 46.1396 30.36 14.3413
8992 1 49.2124 30.2682 14.341
9191 1 47.7289 28.6838 15.8978
8995 1 54.0895 28.6636 12.6354
9195 1 54.0717 28.5931 16.0731
9242 1 33.334 8.03847 20.7579
9243 1 34.9928 6.39836 19.1199
9044 1 36.5351 7.98093 17.4677
9046 1 39.7686 7.97743 17.4433
9245 1 38.1328 6.48883 19.0552
9246 1 39.7062 7.91877 20.5661
9048 1 42.8627 7.94763 17.4457
9247 1 41.3449 6.46928 19.0647
9248 1 42.9087 7.93828 20.6062
9052 1 49.1388 7.90922 17.5068
9252 1 49.2027 7.88684 20.694
9256 1 55.6811 7.84161 20.6896
9261 1 31.8645 9.58323 19.1976
9262 1 33.3147 11.0718 20.7441
9283 1 35.0295 12.7334 19.0912
9064 1 36.5684 11.0611 17.4515
9066 1 39.8058 11.1151 17.4144
9264 1 36.5181 11.1679 20.6883
9266 1 39.7347 11.2117 20.6677
9068 1 42.8955 11.1739 17.4585
9269 1 44.4651 9.55187 19.0152
9287 1 41.27 12.615 19.0275
9289 1 44.5301 12.6066 18.9911
9070 1 46.0318 11.1209 17.4955
9072 1 49.2015 11.1042 17.4606
9270 1 46.0452 11.0398 20.5291
9271 1 47.6886 9.54901 19.0509
9272 1 49.2912 11.052 20.6892
9295 1 54.0533 12.8472 19.0752
9082 1 33.4192 14.3296 17.4979
9302 1 33.3327 17.4138 20.7327
9303 1 34.9758 15.8274 19.1374
9084 1 36.4718 14.315 17.559
9284 1 36.5185 14.2767 20.6847
9304 1 36.5802 17.4477 20.7165
9108 1 42.9371 17.6124 17.4921
9307 1 41.3593 15.9326 19.0627
9110 1 46.0742 17.5985 17.5064
9292 1 49.2811 14.2894 20.6903
9310 1 46.0743 17.5377 20.6426
9094 1 52.5785 14.3377 17.5123
9114 1 52.5253 17.4326 17.498
9294 1 52.556 14.2976 20.6331
9315 1 54.0871 15.8347 19.0066
9096 1 55.6061 14.3814 17.5408
9116 1 55.6315 17.3902 17.4997
9296 1 55.6171 14.4039 20.6252
9317 1 57.1838 15.8481 18.9886
9356 1 55.5929 23.9281 20.7049
9324 1 36.6063 20.7086 20.7351
9325 1 38.11 19.0899 19.2094
9345 1 38.154 22.3259 19.1609
9327 1 41.4189 19.1186 19.1057
9328 1 42.9373 20.6407 20.6284
9329 1 44.5971 19.1218 19.0935
9349 1 44.5207 22.2242 19.126
9130 1 46.0943 20.6975 17.5454
9132 1 49.2567 20.7474 17.5337
9330 1 46.0756 20.7057 20.5327
9331 1 47.5739 19.1377 19.0382
9351 1 47.677 22.2032 19.004
9333 1 50.8994 19.1078 19.0444
9334 1 52.4682 20.7478 20.6085
9353 1 50.8234 22.2726 19.051
9355 1 54.0525 22.3277 19.137
9176 1 55.6596 27.0477 17.5139
9362 1 33.383 27.1279 20.754
9144 1 36.5957 23.97 17.509
9166 1 39.7647 27.031 17.5327
9364 1 36.4796 27.1109 20.7351
9366 1 39.8806 27.0571 20.7027
9148 1 42.9777 23.893 17.5774
9168 1 42.8356 26.9564 17.5918
9348 1 42.9562 23.9794 20.6865
9367 1 41.3956 25.5328 19.1406
9368 1 42.8268 26.9785 20.7046
9369 1 44.375 25.4203 19.0925
9152 1 49.3003 23.8124 17.4826
9172 1 49.3083 26.9823 17.482
9441 1 31.8698 6.44473 22.3538
9442 1 33.3058 8.04178 23.8867
9444 1 36.4572 7.98765 23.881
9446 1 39.6863 7.90119 23.922
9450 1 46.1721 7.88262 23.8694
9451 1 47.6508 6.38637 22.3554
9452 1 49.2108 7.94586 23.8698
9453 1 50.7102 6.39545 22.2747
9456 1 55.6518 7.87547 23.828
9461 1 31.884 9.5884 22.347
9462 1 33.3172 11.0179 23.8427
9463 1 34.8592 9.53448 22.2754
9485 1 38.0163 12.7288 22.1947
9487 1 41.2554 12.7081 22.2111
9473 1 50.7704 9.50756 22.2423
9474 1 52.3914 11.1395 23.8499
9493 1 50.9017 12.7147 22.2409
10699 1 57.0779 28.685 41.4031
9502 1 33.3179 17.5009 23.9223
9484 1 36.6086 14.3101 23.8283
9504 1 36.5689 17.4633 23.9067
9505 1 38.0087 15.9321 22.3151
9506 1 39.7062 17.5047 23.9351
9509 1 44.5384 16.0244 22.2514
9510 1 46.0626 17.4824 23.7862
9511 1 47.6556 15.9515 22.2205
9494 1 52.5668 14.3315 23.9087
9515 1 54.1405 15.8097 22.3081
9496 1 55.6512 14.4166 23.929
9516 1 55.714 17.3827 23.8707
9517 1 57.1908 15.9237 22.3474
9522 1 33.4018 20.6077 23.9476
10597 1 57.091 28.6316 38.159
9543 1 35.0459 22.2055 22.3814
9524 1 36.5362 20.7087 23.9178
9526 1 39.789 20.7062 23.9587
9527 1 41.2996 19.1915 22.3642
9528 1 42.7995 20.697 23.9156
9532 1 49.2433 20.7529 23.8847
9555 1 54.1389 22.3885 22.2709
9561 1 31.8544 25.5288 22.324
9562 1 33.4123 27.0762 23.7925
9563 1 35.006 25.5846 22.342
9544 1 36.5922 23.882 23.93
9546 1 39.7482 23.8923 23.9886
9564 1 36.5425 27.0855 23.8994
9566 1 39.7501 26.9803 23.8938
9567 1 41.2927 25.5022 22.2526
9569 1 44.4681 25.4455 22.2679
9550 1 46.0824 23.9973 23.8665
9570 1 46.0462 26.9756 23.8887
9571 1 47.5995 25.4872 22.3475
9574 1 52.483 27.0669 23.9206
9575 1 54.1464 25.5364 22.3276
9556 1 55.6521 24.0182 23.8787
9576 1 55.6778 27.0163 23.9471
9581 1 31.8839 28.5843 22.2856
9583 1 34.9786 28.5199 22.2603
9587 1 41.3216 28.589 22.1867
9588 1 42.9011 30.2039 23.8434
9590 1 46.017 30.2318 23.9236
9593 1 50.986 28.686 22.2613
9594 1 52.4353 30.2638 23.8798
9596 1 55.6185 30.256 23.8726
9641 1 31.8467 6.43279 25.4876
9642 1 33.3205 8.04192 26.9765
10596 1 55.5922 30.1252 39.7691
9845 1 38.1094 6.38293 28.7085
9647 1 41.2382 6.36691 25.4078
9650 1 46.1462 8.04235 27.0892
9651 1 47.6501 6.45306 25.4344
9652 1 49.1597 8.01717 26.9949
9657 1 57.1841 6.38 25.399
9661 1 31.8273 9.56876 25.4871
9662 1 33.3471 10.98 27.031
9663 1 34.8415 9.52046 25.4317
10698 1 54.0523 28.6911 41.2708
10697 1 50.8538 28.7011 41.2628
9863 1 34.9503 9.57911 28.5688
10595 1 53.9009 28.6222 38.1377
9664 1 36.4498 11.0797 27.0151
9685 1 38.0163 12.7509 25.4311
9687 1 41.2717 12.7688 25.4685
9867 1 41.3272 9.52037 28.7848
9869 1 44.5412 9.58245 28.7411
9670 1 46.122 11.0921 27.1638
9671 1 47.659 9.4387 25.4876
9871 1 47.5633 9.52519 28.6579
9891 1 47.5656 12.7143 28.669
9673 1 50.7898 9.50854 25.4549
9695 1 54.0447 12.8559 25.4679
9875 1 54.0186 9.56112 28.6468
9893 1 50.9223 12.7874 28.6893
9895 1 54.048 12.8451 28.6626
9697 1 57.1598 12.837 25.455
9897 1 57.2262 12.8009 28.6907
9682 1 33.2974 14.3144 27.0672
10594 1 52.3937 30.1302 39.6744
9702 1 33.3178 17.5301 26.9911
10593 1 50.9094 28.6936 38.1179
9704 1 36.5556 17.5507 26.9899
9705 1 38.0466 16.0148 25.3993
9707 1 41.2747 16.0266 25.4703
9708 1 42.7624 17.5753 27.0726
9907 1 41.3118 16.0752 28.6955
9690 1 46.0925 14.3291 27.1267
9710 1 46.069 17.5534 27.0747
9712 1 49.2809 17.5131 27.0702
9694 1 52.5513 14.2407 27.0661
9714 1 52.5198 17.4644 27.0475
9715 1 54.1165 15.829 25.467
9696 1 55.6483 14.2701 26.988
9717 1 57.2047 15.938 25.3822
9721 1 31.8373 19.0465 25.4476
9723 1 34.9699 19.046 25.4251
10696 1 47.7538 28.6293 41.3141
10592 1 49.3346 30.1816 39.7427
9943 1 34.9814 22.29 28.6362
9724 1 36.5886 20.7016 27.0704
9745 1 38.1815 22.3081 25.4264
9925 1 38.1262 19.1057 28.6614
9727 1 41.316 19.1854 25.4449
9728 1 42.7794 20.698 27.011
9747 1 41.2921 22.3063 25.4539
9927 1 41.3371 19.1461 28.6826
9730 1 46.0926 20.7488 27.0241
9732 1 49.2402 20.757 27.0298
9751 1 47.6381 22.3091 25.4826
9736 1 55.7251 20.6818 27.0808
9762 1 33.3674 27.1167 27.1427
9746 1 39.6982 23.8721 26.9213
9764 1 36.5569 27.0831 26.9813
9765 1 38.1648 25.4813 25.4233
9766 1 39.6336 26.9473 26.927
9965 1 38.168 25.4777 28.5508
9748 1 42.8337 23.88 26.9216
9767 1 41.1854 25.4245 25.4473
9769 1 44.6042 25.442 25.4133
9750 1 46.1188 23.9204 26.9145
9770 1 46.053 27.0769 26.9716
9771 1 47.5655 25.5343 25.4524
9772 1 49.3128 27.0742 27.0026
9754 1 52.4413 24.0207 27.0372
9773 1 50.9161 25.5403 25.4852
9775 1 54.1878 25.5395 25.4481
9973 1 50.9378 25.4558 28.6517
9756 1 55.7269 24.0439 27.0022
9776 1 55.7316 27.0749 27.0243
9777 1 57.2142 25.5145 25.4926
9977 1 57.2041 25.5203 28.4838
9782 1 33.4053 30.1545 27.0651
9783 1 34.966 28.5677 25.5022
9983 1 34.915 28.594 28.5176
9784 1 36.4752 30.1354 26.9548
9785 1 38.1085 28.5132 25.4508
9786 1 39.6977 30.18 26.9626
9788 1 43.0141 30.1512 26.942
9789 1 44.5538 28.6494 25.409
9989 1 44.5563 28.5709 28.4955
9790 1 46.0248 30.1813 26.9976
9792 1 49.3623 30.2415 26.9724
9991 1 47.6857 28.5875 28.4952
9793 1 50.9398 28.6926 25.4789
9794 1 52.4555 30.2407 26.9592
9995 1 54.1091 28.6301 28.6356
9796 1 55.6585 30.1024 27.0426
9797 1 57.1979 28.6296 25.4989
9997 1 57.1572 28.6294 28.5599
10589 1 44.4491 28.5695 38.1691
10587 1 41.261 28.6012 38.0906
10042 1 33.3661 7.95988 33.4328
9844 1 36.5147 8.02126 30.2458
9846 1 39.7424 8.01346 30.2842
10044 1 36.5336 7.98061 33.3922
9848 1 42.8587 8.02772 30.3043
10047 1 41.3104 6.44484 31.7806
10048 1 42.8796 7.99938 33.3548
10049 1 44.4603 6.4518 31.7589
9850 1 46.0275 8.04811 30.2161
9852 1 49.256 7.95825 30.2716
10052 1 49.2555 7.95733 33.3681
10056 1 55.6574 8.00621 33.4161
10057 1 57.1879 6.42502 31.7939
10693 1 38.2286 28.61 41.3387
10062 1 33.3721 11.1256 33.3177
10063 1 34.9929 9.55464 31.8583
10083 1 34.9547 12.708 31.8698
9864 1 36.4408 11.0685 30.2993
10064 1 36.472 11.0914 33.3144
10065 1 37.9952 9.53466 31.8089
9868 1 42.8352 11.1174 30.2832
10067 1 41.4042 9.55131 31.8195
10068 1 42.8696 11.2279 33.4707
10087 1 41.3893 12.7349 31.9047
9870 1 46.0851 11.1352 30.1833
10070 1 45.9939 11.2055 33.5557
10073 1 50.7491 9.51877 31.8588
10074 1 52.3425 11.1648 33.3552
10093 1 50.8835 12.8011 31.8851
10076 1 55.6738 11.1622 33.3896
10097 1 57.2172 12.7934 31.7417
10082 1 33.3253 14.2502 33.3742
10585 1 38.2304 28.6384 38.0726
10102 1 33.3196 17.5204 33.5073
9884 1 36.4854 14.2931 30.2568
9904 1 36.5799 17.5988 30.227
9906 1 39.7052 17.5909 30.1665
10084 1 36.5024 14.3182 33.4148
10104 1 36.5355 17.5417 33.4526
9908 1 42.7911 17.4886 30.2095
10088 1 42.8541 14.2946 33.4304
10107 1 41.3319 16.0067 31.8461
10108 1 42.8692 17.4143 33.3222
10109 1 44.4832 15.958 31.9205
9910 1 46.1157 17.4924 30.3388
9912 1 49.2165 17.4639 30.3473
10090 1 46.1016 14.3375 33.4912
10092 1 49.2106 14.4101 33.4255
10110 1 46.101 17.3882 33.3429
10111 1 47.6686 15.9577 31.9152
10112 1 49.2012 17.3757 33.3767
9894 1 52.4079 14.275 30.2751
10094 1 52.3388 14.3951 33.3358
10113 1 50.8289 15.9024 31.9006
10114 1 52.3999 17.4098 33.3938
10115 1 54.0156 15.8012 31.8502
9896 1 55.6765 14.2857 30.2603
10096 1 55.6919 14.4003 33.3041
10117 1 57.2344 15.8383 31.7955
10122 1 33.3379 20.7321 33.4984
10141 1 31.8093 22.3852 31.8523
9926 1 39.6682 20.6824 30.2323
10125 1 38.1439 19.1062 31.7728
10126 1 39.6172 20.7573 33.3109
10145 1 38.2288 22.2946 31.827
9928 1 42.8074 20.6752 30.1821
10147 1 41.2043 22.2777 31.7467
9932 1 49.2596 20.6969 30.2655
10131 1 47.665 18.9669 31.7816
9934 1 52.4191 20.732 30.2789
10153 1 50.879 22.3251 31.7315
10157 1 57.2298 22.3633 31.8707
9942 1 33.2724 23.9643 30.2932
9962 1 33.3133 27.0403 30.2008
10142 1 33.3134 23.9008 33.4317
10163 1 34.866 25.4501 31.7784
9946 1 39.7382 23.8366 30.3064
10146 1 39.7217 23.8357 33.3352
10164 1 36.503 27.0995 33.3356
10166 1 39.7185 27.0642 33.4131
9948 1 42.8274 23.8761 30.2774
10167 1 41.2444 25.4023 31.7973
10168 1 42.8356 26.9066 33.3879
10169 1 44.5079 25.456 31.8282
9952 1 49.3075 23.9088 30.2316
9970 1 46.0838 27.0228 30.1597
10150 1 46.0715 23.9493 33.4063
10170 1 46.089 26.8939 33.3745
10171 1 47.6233 25.4675 31.8056
9954 1 52.4321 23.9181 30.2262
9974 1 52.5 27.0719 30.1458
10154 1 52.4752 23.9224 33.4326
10174 1 52.5191 27.0947 33.5134
9976 1 55.6708 27.0705 30.1128
10156 1 55.7035 23.9313 33.4444
10176 1 55.6179 27.0261 33.5081
10177 1 57.142 25.4633 31.8752
10691 1 31.8859 28.6287 41.3226
10182 1 33.4175 30.281 33.3353
10183 1 34.9343 28.6354 31.8491
9986 1 39.6316 30.1782 30.1676
10184 1 36.4817 30.1949 33.341
10185 1 38.0949 28.6322 31.8893
10186 1 39.6239 30.084 33.417
9994 1 52.4879 30.1933 30.1324
10194 1 52.4582 30.1958 33.5549
9996 1 55.6362 30.1415 30.1445
10196 1 55.5954 30.1803 33.4875
10583 1 34.9066 28.6045 38.0655
10241 1 31.8418 6.46933 34.9798
10242 1 33.4264 7.90855 36.471
10243 1 35.0302 6.45881 34.9426
10244 1 36.4951 7.95197 36.5404
10245 1 38.0438 6.39682 34.9418
10246 1 39.6874 7.99303 36.5521
10249 1 44.523 6.42065 34.9956
10250 1 46.034 7.91695 36.6192
10254 1 52.3765 7.96907 36.7237
10256 1 55.6053 7.99137 36.6927
10261 1 31.8762 9.53131 34.9867
10262 1 33.4116 11.1276 36.5796
10264 1 36.5282 11.1223 36.6771
10268 1 42.9403 11.2711 36.541
10269 1 44.4711 9.70772 34.9994
10287 1 41.4197 12.767 35.0175
10289 1 44.4575 12.7462 35.0245
10270 1 45.9875 11.2265 36.5309
10291 1 47.5614 12.787 35.0396
10277 1 57.137 9.5512 34.9615
10302 1 33.4073 17.5357 36.5085
10284 1 36.5553 14.3455 36.6569
10305 1 38.0595 15.9102 34.9842
10306 1 39.7219 17.4466 36.6207
10288 1 42.8572 14.2148 36.582
10308 1 42.8513 17.5081 36.6548
10290 1 46.036 14.2206 36.5055
10292 1 49.1999 14.3149 36.5311
10311 1 47.6326 15.8043 34.9383
10313 1 50.7798 15.8736 34.87
10316 1 55.6505 17.6388 36.5391
10317 1 57.2368 15.9491 34.9339
10321 1 31.8344 19.0707 34.9481
10323 1 34.9217 19.0491 34.956
10341 1 31.8241 22.3492 34.9965
10343 1 34.8759 22.3081 34.961
10324 1 36.5207 20.7155 36.5277
10326 1 39.6698 20.7293 36.5872
10345 1 38.1623 22.2353 34.9665
10328 1 42.8719 20.5927 36.6246
10330 1 46.0937 20.6462 36.6148
10351 1 47.6006 22.2766 34.9732
10335 1 54.0972 19.09 35.0593
10336 1 55.6418 20.6819 36.6159
10337 1 57.1702 19.0803 35.0556
10357 1 57.1712 22.3281 34.9706
10342 1 33.3624 23.8767 36.4961
10361 1 31.8797 25.3785 34.9591
10362 1 33.4232 26.9115 36.5049
10363 1 34.8785 25.4416 34.9629
10366 1 39.7471 27.1533 36.4994
10348 1 42.889 23.9207 36.4913
10367 1 41.2599 25.4969 34.906
10369 1 44.4811 25.44 34.8987
10371 1 47.6315 25.4756 34.9301
10372 1 49.3291 27.0813 36.5808
10354 1 52.508 23.9201 36.6482
10374 1 52.5123 27.1412 36.5819
10375 1 54.0293 25.5418 34.9844
10376 1 55.4988 27.0569 36.522
10377 1 57.1016 25.4523 34.9222
10382 1 33.4395 30.2892 36.468
10385 1 38.1523 28.6459 34.9051
10386 1 39.6866 30.134 36.6109
10387 1 41.1787 28.5942 34.9734
10388 1 42.8178 30.1323 36.6478
10392 1 49.4256 30.2312 36.5667
10393 1 50.9487 28.6395 35.0774
10394 1 52.3871 30.1558 36.5456
10395 1 53.9715 28.5724 34.9631
10397 1 57.046 28.575 34.9434
10443 1 35.0065 6.42439 38.0315
10622 1 35.0068 6.39362 41.2569
10444 1 36.5293 7.99508 39.6135
10447 1 41.3388 6.39254 38.1365
10449 1 44.5979 6.4151 38.2418
10450 1 46.1472 7.91432 39.8162
10451 1 47.7182 6.36563 38.3142
10452 1 49.296 7.8589 39.8125
10454 1 52.3316 7.88967 39.7875
10456 1 55.6541 7.87847 39.8259
10457 1 57.1584 6.42709 38.2785
10463 1 35.0559 9.55004 38.056
10483 1 35.0757 12.6883 38.0991
10641 1 31.8314 12.6871 41.3856
10642 1 35.0016 12.6439 41.329
10464 1 36.547 11.1503 39.606
10465 1 38.0612 9.57564 38.1316
10466 1 39.7029 11.1773 39.6227
10485 1 38.0711 12.7459 38.1907
10487 1 41.3526 12.7904 38.1566
10489 1 44.4766 12.7539 38.0953
10635 1 44.6675 9.51686 41.3478
10470 1 46.1136 11.0685 39.8799
10636 1 47.6061 9.49381 41.3703
10646 1 47.5967 12.6037 41.3963
10473 1 50.8423 9.39577 38.25
10475 1 54.013 9.39462 38.1964
10493 1 50.8201 12.7352 38.1903
10637 1 50.8588 9.39635 41.3317
10648 1 54.0537 12.7244 41.3862
10503 1 35.0123 15.8298 38.095
10484 1 36.5407 14.2566 39.6088
10486 1 39.7368 14.3028 39.5789
10505 1 38.1642 15.895 38.1454
10506 1 39.7668 17.4565 39.5912
10488 1 42.9 14.2924 39.6339
10507 1 41.3056 15.9186 38.1237
10655 1 44.5445 15.8228 41.2536
10490 1 46.0271 14.2666 39.7548
10510 1 45.9986 17.5172 39.7096
10512 1 49.2532 17.4609 39.6767
10494 1 52.4161 14.2639 39.7483
10513 1 50.7961 15.8747 38.1879
10496 1 55.6238 14.2718 39.8156
10523 1 34.9948 19.123 38.0811
10556 1 55.6071 23.8103 39.6988
10662 1 34.9693 19.1328 41.2862
10671 1 31.8018 22.2008 41.285
10672 1 34.978 22.2494 41.2607
10524 1 36.5372 20.7198 39.7343
10526 1 39.7081 20.7365 39.6941
10545 1 38.1435 22.183 38.1402
10673 1 38.2219 22.2235 41.3082
10527 1 41.2522 19.0744 38.0819
10529 1 44.5125 19.107 38.1003
10665 1 44.6009 19.0789 41.2777
10675 1 44.5297 22.3271 41.3205
10530 1 46.026 20.6151 39.6907
10531 1 47.569 19.0633 38.1884
10551 1 47.5332 22.2382 38.1748
10534 1 52.525 20.734 39.6843
10535 1 54.0955 19.1555 38.1262
10553 1 50.9384 22.3537 38.1881
10555 1 54.0021 22.3578 38.2073
10668 1 54.1208 19.1481 41.3858
10537 1 57.1758 19.089 38.1234
10557 1 57.1617 22.3151 38.2033
10669 1 57.1903 19.0717 41.3854
10679 1 57.1866 22.3511 41.3748
10542 1 33.3787 23.8382 39.6197
10561 1 31.9178 25.3683 38.0168
10562 1 33.4393 27.0178 39.5741
10563 1 34.8758 25.453 38.0952
10566 1 39.7352 27.1349 39.6965
10548 1 42.9023 23.8384 39.81
10568 1 42.8777 27.0478 39.6997
10684 1 41.3751 25.461 41.385
10550 1 46.0956 23.8561 39.7401
10570 1 46.1492 26.9992 39.7475
10571 1 47.6234 25.4908 38.2065
10686 1 47.6132 25.4496 41.3043
10554 1 52.479 23.8874 39.6514
10574 1 52.4633 27.1842 39.6866
10575 1 53.9424 25.5042 38.131
13405 1 38.1865 31.7978 22.1578
13407 1 41.3271 31.6694 22.1888
13409 1 44.466 31.7025 22.2721
13413 1 50.9504 31.7263 22.2797
13415 1 53.9717 31.7224 22.3713
13603 1 34.9634 31.7069 25.4812
13805 1 38.1875 31.7207 28.6395
13607 1 41.3693 31.639 25.4353
13609 1 44.5364 31.6394 25.437
13809 1 44.5435 31.725 28.504
13611 1 47.6424 31.7201 25.4811
13613 1 50.9763 31.7226 25.4263
13615 1 54.0516 31.7095 25.424
13813 1 50.9204 31.7307 28.5592
14003 1 34.9371 31.7935 31.8996
14017 1 57.1698 31.7585 31.6786
14203 1 34.9344 31.7911 34.8422
14211 1 47.7436 31.7984 35.0302
14213 1 50.9174 31.7797 35.0723
14215 1 53.8974 31.7179 34.974
14217 1 57.1235 31.7387 34.9692
14407 1 41.2683 31.7564 38.0868
14604 1 41.3434 31.7951 41.3739
14413 1 50.8468 31.7515 38.0924
14609 1 57.1229 31.7789 41.3369
10722 1 36.5418 7.96682 42.8913
10723 1 39.8334 7.96157 42.8751
10849 1 44.6738 6.36463 44.4787
10725 1 46.1559 7.96428 42.9457
10850 1 46.0945 7.87918 46.0383
10727 1 52.4206 7.88017 42.8422
10731 1 33.3693 11.1221 42.9191
10861 1 31.8353 9.59755 44.4762
10862 1 33.3513 11.0324 46.0615
10863 1 35.014 9.62449 44.4851
10881 1 31.8588 12.6258 44.4381
10732 1 36.5494 11.1374 42.9085
10733 1 39.7798 11.1598 42.9677
10864 1 36.534 11.0803 46.04
10866 1 39.7939 11.1185 45.9944
10885 1 38.1082 12.5897 44.5
10867 1 41.2836 9.55376 44.4583
10869 1 44.6491 9.45253 44.4543
10887 1 41.302 12.6356 44.4672
10889 1 44.5688 12.6668 44.397
10735 1 46.1576 11.0426 42.9264
10736 1 49.1788 11.0636 42.9394
10871 1 47.6687 9.507 44.4397
10872 1 49.3197 11.0895 46.0507
10891 1 47.7403 12.5727 44.4629
10875 1 54.1211 9.53555 44.5038
10893 1 50.8289 12.6353 44.5569
10738 1 55.6633 11.0586 42.9761
10876 1 55.6636 11.1289 46.183
10897 1 57.2229 12.6629 44.5557
10741 1 33.3342 14.2093 42.8563
10902 1 33.3071 17.4654 46.1333
10903 1 34.9186 15.8346 44.5169
10884 1 36.5314 14.3037 46.052
10744 1 42.9163 14.2587 42.9223
10907 1 41.3667 15.8416 44.445
10745 1 46.134 14.1702 42.892
10755 1 46.0317 17.4615 42.802
10892 1 49.385 14.1596 46.031
10912 1 49.3696 17.4504 46.1073
10747 1 52.4798 14.2619 43.0043
10913 1 50.8792 15.8159 44.5373
10915 1 54.1116 15.8555 44.5039
10758 1 55.6961 17.5331 42.9739
10896 1 55.7493 14.253 46.1332
10917 1 57.2249 15.8574 44.5295
10761 1 33.4096 20.6999 42.7936
10922 1 33.3402 20.6582 46.1429
10763 1 39.6912 20.7694 42.9492
10925 1 38.1797 19.1329 44.468
10945 1 38.2741 22.3275 44.4711
10947 1 41.3278 22.4146 44.4915
10949 1 44.5349 22.3189 44.4605
10765 1 46.0194 20.7503 42.8949
10930 1 46.071 20.7872 46.0712
10951 1 47.578 22.25 44.4931
10934 1 52.5575 20.7635 46.1611
10955 1 54.1163 22.3271 44.6187
10768 1 55.6878 20.6623 42.8794
10936 1 55.6809 20.7419 46.1834
10937 1 57.1855 19.1545 44.5465
10781 1 33.4019 27.0361 42.8918
10963 1 35.0379 25.5387 44.4676
10773 1 39.774 23.8924 43.0018
10782 1 36.6194 27.004 42.9256
10783 1 39.7781 26.9668 42.9255
10946 1 39.8103 23.9127 45.9929
10964 1 36.5848 27.0059 46.0538
10965 1 38.2313 25.4789 44.4675
10774 1 42.8761 23.8324 42.9631
10784 1 42.8465 26.9197 42.8972
10948 1 42.8905 23.8506 46.0477
10967 1 41.3391 25.3839 44.4456
10775 1 46.071 23.807 42.9589
10786 1 49.201 27.0935 42.8941
10970 1 46.197 26.9983 46.0939
10971 1 47.6805 25.5264 44.5554
10972 1 49.2299 27.0379 46.1486
10954 1 52.5356 23.9147 46.1991
10974 1 52.4422 27.0444 46.1613
10778 1 55.6356 23.8598 42.9932
10788 1 55.6335 27.1563 42.9662
10956 1 55.5568 23.8276 46.1714
10976 1 55.67 27.0862 46.062
10977 1 57.112 25.462 44.5511
10791 1 33.394 30.2085 42.8393
10793 1 39.7344 30.2435 42.7781
10986 1 39.8109 30.1843 46.1475
10794 1 42.9173 30.2293 42.8064
10796 1 49.2524 30.1461 42.787
10991 1 47.7787 28.5529 44.5024
10992 1 49.2567 30.1241 46.134
10995 1 54.1362 28.5959 44.4762
10798 1 55.654 30.1982 42.9288
10997 1 57.1551 28.5925 44.5414
11042 1 33.3554 7.89444 49.2653
11043 1 34.8886 6.3923 47.7627
11045 1 38.2052 6.41692 47.6999
11046 1 39.8385 7.96694 49.2788
11047 1 41.3997 6.44453 47.7289
11048 1 42.969 7.94598 49.2384
11049 1 44.6624 6.40239 47.6734
11050 1 46.0926 7.88765 49.2497
11051 1 47.6179 6.36352 47.6685
11052 1 49.3057 7.90864 49.2475
11053 1 50.869 6.36214 47.69
11056 1 55.6677 7.91614 49.2692
11061 1 31.8265 9.53949 47.7351
11063 1 34.944 9.5884 47.6432
11066 1 39.7844 11.0436 49.3401
11067 1 41.3133 9.48369 47.7502
11069 1 44.5952 9.41603 47.7212
11070 1 46.0992 11.0156 49.3023
11073 1 50.8605 9.5024 47.6889
11074 1 52.5083 11.0662 49.1899
11075 1 54.157 9.58194 47.7585
11093 1 50.8584 12.6492 47.6735
11095 1 54.1687 12.6106 47.7091
11076 1 55.6817 11.1573 49.218
11097 1 57.2055 12.6844 47.7257
11082 1 33.2978 14.3046 49.2664
11086 1 39.7261 14.4002 49.2681
11105 1 38.1796 15.8705 47.7478
11106 1 39.7469 17.4704 49.3266
11107 1 41.2441 15.8725 47.7582
11092 1 49.3262 14.2477 49.3309
11124 1 36.6028 20.6578 49.3639
11126 1 39.8146 20.657 49.3687
11127 1 41.2689 19.1235 47.7651
11149 1 44.4888 22.3339 47.7127
11132 1 49.2884 20.7017 49.3408
11133 1 50.9014 19.1071 47.7192
11155 1 54.1215 22.3031 47.6632
11136 1 55.6835 20.7716 49.2956
11157 1 57.1382 22.2148 47.7412
11142 1 33.339 23.9467 49.378
11144 1 36.573 23.9151 49.3507
11146 1 39.8468 23.9225 49.3416
11164 1 36.5149 27.1102 49.3842
11166 1 39.8475 27.049 49.3096
11148 1 42.8907 23.8991 49.3395
11167 1 41.3434 25.4087 47.7657
11168 1 42.8469 26.9851 49.242
11150 1 46.0627 23.8652 49.3021
11152 1 49.2653 23.9148 49.2649
11171 1 47.7281 25.478 47.7062
11172 1 49.2915 27.0505 49.1906
11173 1 50.8338 25.5069 47.686
11175 1 54.0743 25.447 47.6305
11156 1 55.609 23.7744 49.2698
11176 1 55.6666 27.0993 49.2579
11183 1 35.0412 28.5741 47.7177
11187 1 41.3433 28.5758 47.7399
11188 1 42.8507 30.1358 49.2171
11189 1 44.5001 28.5327 47.6658
11191 1 47.7854 28.5022 47.5881
11193 1 50.8514 28.5591 47.609
11194 1 52.4521 30.2068 49.3314
11197 1 57.224 28.5541 47.6644
11241 1 31.8091 6.3909 50.8839
11242 1 33.3489 7.98215 52.4936
11243 1 34.879 6.41722 50.8771
11246 1 39.7776 8.00067 52.4085
11247 1 41.3625 6.44928 50.8364
11249 1 44.5867 6.38919 50.7665
11447 1 41.3631 6.38084 54.0587
11251 1 47.7137 6.39562 50.7334
11254 1 52.5601 7.85841 52.4438
11255 1 54.1392 6.40869 50.8989
11455 1 54.0938 6.37563 53.9777
11256 1 55.6834 7.92607 52.468
11283 1 34.9144 12.7339 50.8632
11461 1 31.8179 9.51598 54.0932
11463 1 34.8961 9.52694 54.1103
11264 1 36.5484 11.1082 52.496
11265 1 38.2196 9.54024 50.8595
11465 1 38.1364 9.52485 54.0659
11267 1 41.2799 9.45298 50.7866
11269 1 44.5691 9.456 50.7144
11287 1 41.2527 12.6862 50.7917
11289 1 44.5394 12.6285 50.8144
11469 1 44.6094 9.49056 54.0513
11487 1 41.2871 12.7349 54.0347
11271 1 47.6907 9.46024 50.7088
11291 1 47.7887 12.6998 50.812
11471 1 47.7002 9.47765 54.0772
11273 1 50.9938 9.52074 50.8507
11274 1 52.5014 11.0691 52.4134
11303 1 34.8951 15.9093 50.8813
11304 1 36.5873 17.4621 52.444
11305 1 38.1726 15.9321 50.8302
11505 1 38.0602 15.9526 54.0878
11307 1 41.2488 15.9248 50.8218
11308 1 42.8877 17.5551 52.5048
11509 1 44.4708 16.0137 53.9802
11292 1 49.2699 14.352 52.381
11310 1 46.1393 17.465 52.5457
11311 1 47.7885 15.8679 50.9317
11312 1 49.2553 17.4602 52.5256
11511 1 47.8078 15.9491 53.9778
11313 1 50.8257 15.8383 50.9214
11315 1 54.1888 15.8953 50.9489
11296 1 55.7956 14.3799 52.4948
11316 1 55.7168 17.4265 52.4411
11543 1 34.9422 22.2288 54.1048
11324 1 36.5593 20.6983 52.5183
11325 1 38.1254 19.1449 50.8914
11327 1 41.2866 19.0877 50.8595
11347 1 41.2652 22.3399 50.8378
11527 1 41.3797 19.1009 54.1111
11529 1 44.4694 19.0686 54.0269
11547 1 41.3078 22.2762 54.1754
11549 1 44.4756 22.2311 54.0604
11330 1 46.0705 20.6641 52.5596
11332 1 49.307 20.6542 52.5635
11351 1 47.7005 22.3046 50.9374
11531 1 47.7716 19.0888 54.0045
11335 1 54.1347 19.0981 50.8856
11355 1 54.1059 22.3237 50.8546
11533 1 50.7693 19.0729 54.095
11553 1 50.8026 22.3009 54.0739
11357 1 57.1925 22.2444 50.8144
11363 1 35.0468 25.4702 50.861
11346 1 39.8151 23.8879 52.5164
11364 1 36.5492 27.1049 52.4645
11565 1 38.2403 25.4184 54.082
11367 1 41.2935 25.4054 50.7698
11369 1 44.5326 25.3586 50.8027
11567 1 41.2342 25.3264 54.0864
11350 1 46.1172 23.823 52.4436
11352 1 49.234 23.8278 52.4801
11370 1 46.1798 26.954 52.4062
11372 1 49.2189 27.0471 52.4283
11571 1 47.7166 25.423 53.9573
11354 1 52.4794 23.8443 52.4853
11575 1 53.9933 25.4072 54.0728
11376 1 55.6929 27.0974 52.5188
11382 1 33.3961 30.1408 52.4901
11383 1 35.0307 28.6372 50.9656
11583 1 34.9446 28.691 54.0097
11384 1 36.5567 30.0976 52.4423
11385 1 38.0659 28.5372 50.8774
11585 1 38.0778 28.5662 53.9919
11387 1 41.3476 28.5305 50.7399
11587 1 41.2822 28.5295 54.0475
11391 1 47.7823 28.4714 50.8266
11591 1 47.7425 28.4599 53.9772
11393 1 50.9191 28.6016 50.8303
11394 1 52.5053 30.2696 52.3979
11595 1 54.1074 28.6008 53.9215
11396 1 55.7046 30.1924 52.4226
11397 1 57.2309 28.6544 50.9923
11442 1 33.3188 8.04847 55.6272
11643 1 34.9743 6.41216 57.2106
11444 1 36.5064 7.99763 55.6285
11446 1 39.7529 7.97993 55.6406
11450 1 46.0983 7.95705 55.5962
11452 1 49.4305 7.85364 55.5879
11456 1 55.6836 7.93406 55.5862
11462 1 33.2666 11.1186 55.646
11683 1 34.9167 12.7666 57.2036
11685 1 38.1858 12.8061 57.2095
11669 1 44.5778 9.4604 57.1542
11470 1 46.1135 10.9887 55.538
11474 1 52.5134 11.1291 55.6775
11693 1 51.0274 12.6591 57.2305
11502 1 33.2868 17.5321 55.6983
11484 1 36.5901 14.3585 55.6854
11486 1 39.6728 14.3097 55.6598
11504 1 36.5577 17.4936 55.6757
11705 1 38.1135 15.8766 57.1486
11508 1 42.9045 17.5887 55.5397
11492 1 49.343 14.2868 55.6252
11512 1 49.322 17.5711 55.5628
11494 1 52.503 14.2701 55.6826
11496 1 55.8206 14.3627 55.6287
11522 1 33.4006 20.7135 55.7152
11526 1 39.8346 20.726 55.6703
11528 1 42.8651 20.711 55.5919
11727 1 41.3182 19.1685 57.0906
11747 1 41.2886 22.3265 57.1258
11749 1 44.3879 22.2413 57.1508
11532 1 49.3347 20.638 55.5931
11751 1 47.7752 22.1887 57.2121
11733 1 50.852 19.1085 57.2258
11546 1 39.7234 23.8278 55.646
11566 1 39.6851 26.9348 55.528
11548 1 42.8859 23.7436 55.6114
11769 1 44.423 25.3125 57.1508
11552 1 49.2733 23.77 55.5618
11570 1 46.1199 26.9313 55.5441
11572 1 49.217 26.9588 55.4971
11554 1 52.4666 23.7986 55.6193
11574 1 52.5671 27.0028 55.5625
11556 1 55.6468 23.8454 55.6456
11582 1 33.3029 30.1419 55.6683
11789 1 44.5128 28.5655 57.1962
11592 1 49.2929 30.1716 55.5315
11795 1 54.0597 28.4714 57.1862
14815 1 54.088 31.7825 44.4042
15007 1 41.3349 31.7783 47.6043
15011 1 47.7681 31.777 47.6738
15213 1 51.0065 31.7929 50.8244
15215 1 54.0358 31.7717 50.8569
15413 1 50.9565 31.7805 53.8873
15415 1 54.0868 31.7347 53.8803
15611 1 47.7207 31.7193 57.194
12402 1 33.3963 33.3142 8.01936
12403 1 34.9387 31.8349 6.45047
12423 1 34.9576 34.9408 6.45264
12404 1 36.5087 33.3437 7.96033
12429 1 44.5744 34.9568 6.46136
12410 1 46.0895 33.4439 7.96042
12412 1 49.2525 33.3634 7.86026
12431 1 47.6612 34.8752 6.48032
12414 1 52.4753 33.3042 7.89372
12416 1 55.6475 33.3551 7.88009
12422 1 33.3553 36.5489 7.99604
12426 1 39.8076 36.6158 7.94919
12445 1 38.212 38.195 6.41336
12446 1 39.748 39.6692 7.90969
12428 1 43.0436 36.5226 8.05617
12447 1 41.3692 38.1112 6.44678
12430 1 46.093 36.5342 8.04063
12450 1 46.1549 39.6362 8.06097
12451 1 47.6558 38.1751 6.53185
12452 1 49.2885 39.732 8.10156
12434 1 52.4642 36.6547 8.03449
12454 1 52.4033 39.7965 8.01839
12456 1 55.6123 39.7899 7.9622
12457 1 57.2096 38.2648 6.36777
12464 1 36.4397 43.0254 7.9358
12468 1 42.9598 42.872 7.9611
12469 1 44.5 41.318 6.45251
12470 1 46.1582 42.8886 8.04484
12473 1 50.9453 41.342 6.52145
12474 1 52.484 42.9344 7.94655
12475 1 54.0843 41.3709 6.49921
12495 1 54.101 44.5657 6.41791
12476 1 55.5478 42.9529 7.94538
12484 1 36.4222 46.1549 7.96465
12506 1 39.7481 49.3237 8.00662
12508 1 43.0089 49.4303 8.01797
12492 1 49.3858 46.2022 8.03797
12510 1 46.1745 49.4694 7.98357
12513 1 50.8833 47.7266 6.37862
12514 1 52.3937 49.2987 7.92654
12496 1 55.5605 46.0896 7.94091
12522 1 33.3451 52.4761 8.03023
12524 1 36.5104 52.4858 7.97785
12528 1 43.0186 52.4626 8.05834
12529 1 44.6485 50.923 6.46051
12530 1 46.1541 52.4039 7.95175
12531 1 47.6345 50.8807 6.36026
12533 1 50.9305 50.861 6.41051
12534 1 52.3693 52.4729 7.87966
12535 1 54.067 50.9181 6.36971
12553 1 50.8822 54.07 6.43246
12555 1 54.0666 53.9681 6.36908
12536 1 55.5479 52.4319 7.85363
12548 1 42.9764 55.6174 8.00586
12552 1 49.3469 55.553 7.93328
12554 1 52.3958 55.5697 7.94717
12575 1 54.0538 57.2241 6.38553
12603 1 34.9121 31.8261 9.55389
13365 1 38.0486 57.2343 19.0453
12606 1 39.7639 33.3877 11.1581
12608 1 43.0482 33.4462 11.1854
12609 1 44.5952 31.9034 9.56564
12629 1 44.5394 34.9839 9.60968
12610 1 46.0421 33.4392 11.2269
12612 1 49.2106 33.3677 11.2283
12616 1 55.7054 33.3197 11.2122
12644 1 36.6063 39.7857 11.2621
12646 1 39.7296 39.7766 11.2915
12628 1 43.0287 36.5479 11.2162
12648 1 42.9954 39.7199 11.2308
12649 1 44.484 38.0677 9.56816
12651 1 47.6682 38.1917 9.54219
12652 1 49.2652 39.7405 11.0906
12634 1 52.4283 36.7058 11.1145
12653 1 50.8874 38.2304 9.57088
12654 1 52.3798 39.6812 11.096
12655 1 53.9127 38.1955 9.51465
12662 1 33.3251 43.0289 11.1089
12683 1 34.964 44.5869 9.54188
12666 1 39.6887 42.8769 11.2645
12671 1 47.722 41.2203 9.56761
12691 1 47.746 44.5922 9.61811
12673 1 50.8947 41.2465 9.58574
12674 1 52.4375 42.9985 11.1611
12695 1 54.0664 44.4902 9.51075
12677 1 57.1693 41.3322 9.44744
12682 1 33.3345 46.1161 11.0202
12703 1 34.988 47.6201 9.55991
12684 1 36.5514 46.1904 11.0901
12705 1 38.1217 47.721 9.564
12706 1 39.7583 49.3271 11.2365
12708 1 42.9183 49.4169 11.1836
12690 1 46.1691 46.1191 11.2222
12692 1 49.3049 46.1062 11.1665
12712 1 49.3005 49.3848 11.1312
12713 1 50.8305 47.7035 9.5575
12715 1 54.0882 47.6708 9.52231
12696 1 55.5468 46.0762 11.0997
12721 1 31.8058 51.023 9.57821
12722 1 33.3532 52.4601 11.0906
12723 1 34.9359 50.9945 9.51635
12727 1 41.4164 50.8294 9.54069
12729 1 44.5252 50.8895 9.45624
12747 1 41.3976 54.081 9.51097
12749 1 44.5006 54.011 9.44611
12731 1 47.7312 50.9018 9.54189
12732 1 49.3393 52.4006 11.0839
12733 1 50.8827 50.946 9.56081
12734 1 52.3453 52.4737 11.099
12753 1 50.8939 54.0631 9.53941
12737 1 57.2187 50.9361 9.45724
12742 1 33.2827 55.7353 11.1425
12746 1 39.7962 55.6176 11.1811
12752 1 49.3889 55.5848 11.082
12754 1 52.4102 55.5805 11.1049
12773 1 50.9464 57.1314 9.5367
12756 1 55.5878 55.6119 11.1909
13023 1 34.9946 34.978 15.9299
12804 1 36.5115 33.3871 14.3984
12825 1 38.1183 34.9541 12.7926
13354 1 52.5254 55.6106 20.741
13025 1 38.0754 34.9803 15.8746
12808 1 43.0432 33.461 14.2771
12809 1 44.5497 31.9785 12.7488
12827 1 41.4638 34.9466 12.7119
12829 1 44.5264 34.929 12.757
13009 1 44.5605 31.8711 15.7848
13029 1 44.5761 35.0155 15.852
12810 1 46.0941 33.4274 14.2937
12811 1 47.639 31.8686 12.7577
12831 1 47.5769 34.9201 12.7381
13031 1 47.5493 35.0175 15.8498
13352 1 49.3265 55.5772 20.648
13033 1 50.8599 34.9978 15.9362
13350 1 46.1281 55.6437 20.6542
12824 1 36.6229 36.4791 14.3906
12844 1 36.6218 39.79 14.2688
12845 1 38.1718 38.268 12.7969
12846 1 39.7422 39.7574 14.2868
12848 1 43.0018 39.7095 14.363
12849 1 44.4861 38.177 12.7891
13047 1 41.4365 38.2042 15.9613
13049 1 44.4899 38.1358 15.9206
12830 1 46.0274 36.4841 14.3257
12850 1 45.9754 39.7362 14.3185
12853 1 50.8561 38.2198 12.6196
12855 1 53.9405 38.1747 12.6392
13053 1 50.8487 38.2095 16.0047
12863 1 35.0153 41.2944 12.7396
13083 1 34.9606 44.5157 15.9366
12865 1 38.2142 41.301 12.763
12866 1 39.6804 42.8982 14.289
12885 1 38.1616 44.4928 12.7268
13085 1 38.2062 44.455 15.9286
12867 1 41.2638 41.2626 12.768
12869 1 44.4881 41.1925 12.7937
12889 1 44.5876 44.5827 12.7795
13069 1 44.4829 41.2096 15.8885
12871 1 47.7214 41.2988 12.7619
12872 1 49.3224 42.9554 14.362
13091 1 47.6282 44.513 15.9264
12874 1 52.4201 42.9942 14.3516
12893 1 50.9153 44.4659 12.7912
12895 1 53.9763 44.5084 12.7486
13073 1 50.8309 41.3544 15.8931
13075 1 54.003 41.3612 15.9176
13093 1 50.9215 44.5114 15.8348
13095 1 53.973 44.5458 15.8912
12877 1 57.2342 41.3851 12.7511
12902 1 33.4363 49.3364 14.2916
13103 1 34.9101 47.806 15.9066
12905 1 38.1332 47.7387 12.6884
13105 1 38.1523 47.7282 15.9126
12907 1 41.3664 47.8242 12.713
12908 1 42.8228 49.3263 14.2634
13107 1 41.3868 47.7017 15.8926
12890 1 46.1613 46.1075 14.3451
12910 1 46.2084 49.3027 14.2733
12911 1 47.666 47.6548 12.7256
13111 1 47.5911 47.6704 15.8966
12894 1 52.452 45.9725 14.2992
12914 1 52.4347 49.3293 14.2009
12916 1 55.7285 49.3057 14.3003
12922 1 33.3797 52.5677 14.3546
12923 1 34.9227 50.9617 12.7828
13141 1 31.8823 54.0979 15.8966
13143 1 34.8911 54.0928 15.836
12924 1 36.5887 52.4491 14.2625
12925 1 38.2013 50.9322 12.7598
12926 1 39.7584 52.4423 14.2554
12945 1 38.1752 54.072 12.8007
13125 1 38.1456 50.9627 15.8041
12927 1 41.3539 50.8195 12.7007
12929 1 44.5067 50.833 12.7559
12947 1 41.2316 54.0785 12.7421
12949 1 44.5834 54.0216 12.755
13127 1 41.3456 50.8795 15.7962
13147 1 41.2482 54.0271 15.7954
13149 1 44.6156 54.021 15.7659
12930 1 46.1009 52.4445 14.2583
12931 1 47.6863 50.8895 12.7005
13131 1 47.6456 50.8368 15.8409
13151 1 47.7247 54.0289 15.8405
12933 1 50.8195 50.8804 12.5906
12935 1 53.9965 50.8257 12.6862
12953 1 50.8583 54.0388 12.5352
12955 1 54.0056 54.0752 12.568
12942 1 33.4062 55.6989 14.3175
12961 1 31.836 57.2051 12.7323
12963 1 34.8559 57.2212 12.7384
13163 1 34.9136 57.2156 15.8215
12944 1 36.4508 55.6722 14.3019
12946 1 39.801 55.6176 14.2703
12967 1 41.2908 57.1833 12.6718
13167 1 41.2864 57.1919 15.8248
12950 1 46.1427 55.5942 14.301
12971 1 47.6371 57.2301 12.7385
13171 1 47.7239 57.2208 15.8835
12975 1 54.0415 57.2294 12.5829
13201 1 31.8532 31.8477 19.1331
13202 1 33.4094 33.3805 20.5968
13203 1 34.997 31.8497 19.1359
13221 1 31.8026 35.065 19.0903
13223 1 34.9286 34.9519 19.1403
13204 1 36.5721 33.3296 20.63
13152 1 49.2433 55.6029 17.452
13206 1 39.696 33.3228 20.6932
13225 1 38.177 34.926 19.1995
13209 1 44.5097 31.8222 19.115
13210 1 46.1112 33.3454 20.5741
13231 1 47.6226 34.9787 19.0508
13367 1 41.3784 57.2213 19.1186
13235 1 54.0455 35.0245 19.0944
13348 1 42.9223 55.6641 20.6573
13022 1 33.3476 36.4497 17.5712
13242 1 33.3024 39.7453 20.8186
13044 1 36.633 39.722 17.6339
13226 1 39.6874 36.5921 20.6324
13244 1 36.5799 39.683 20.7698
13245 1 38.1651 38.2079 19.1906
13246 1 39.7159 39.7133 20.6561
13028 1 42.9333 36.6671 17.4681
13048 1 42.9197 39.6337 17.4961
13228 1 42.9279 36.6346 20.6457
13247 1 41.368 38.1088 19.123
13249 1 44.4145 38.1073 18.9881
13030 1 46.0495 36.5514 17.4393
13052 1 49.235 39.7639 17.5069
13251 1 47.7295 38.2267 19.037
13252 1 49.2533 39.8261 20.6984
13034 1 52.3984 36.5537 17.468
13054 1 52.3845 39.7882 17.429
13234 1 52.49 36.5348 20.8008
13036 1 55.733 36.5446 17.5847
13262 1 33.2646 42.8193 20.8335
13066 1 39.7549 42.886 17.5933
13265 1 38.1453 41.2417 19.1632
13267 1 41.3043 41.2901 19.0902
13287 1 41.3218 44.5214 19.0772
13070 1 46.1846 42.9356 17.5081
13270 1 46.1916 42.9072 20.6864
13271 1 47.7141 41.3799 19.1105
13272 1 49.2027 42.9049 20.684
13291 1 47.6607 44.4436 19.0835
13295 1 54.0226 44.5442 19.049
13076 1 55.5689 42.9916 17.4567
13102 1 33.4179 49.3563 17.5135
13156 1 55.6471 55.6865 17.4141
13302 1 33.3631 49.3206 20.7356
13286 1 39.8679 46.1068 20.7155
13306 1 39.7943 49.289 20.6226
13088 1 42.8402 46.1239 17.5305
13307 1 41.3201 47.6511 19.1215
13090 1 46.2408 46.0834 17.4932
13110 1 46.2328 49.263 17.4452
13310 1 46.1144 49.25 20.6243
13311 1 47.6218 47.7111 19.0296
13094 1 52.4728 46.0434 17.485
13114 1 52.4295 49.2852 17.5594
13294 1 52.4793 46.1338 20.6937
13313 1 51.0124 47.6749 19.0536
13314 1 52.4271 49.2743 20.6251
13116 1 55.7257 49.2565 17.4103
13316 1 55.609 49.2659 20.6189
13122 1 33.3946 52.5516 17.4545
13322 1 33.3959 52.5014 20.6937
13323 1 34.877 50.9485 19.1104
13375 1 54.0317 57.2256 19.0496
13324 1 36.4945 52.451 20.6482
13325 1 38.1751 50.9091 19.1647
13326 1 39.7044 52.3952 20.6172
13327 1 41.2653 50.8444 19.129
13132 1 49.2226 52.4111 17.4848
13331 1 47.7061 50.8221 19.0017
13351 1 47.809 54.0759 19.0193
13333 1 50.9688 50.8226 19.0735
13334 1 52.425 52.4329 20.6937
13335 1 54.0712 50.7834 19.1112
13336 1 55.6111 52.4469 20.6416
13142 1 33.4036 55.6225 17.3736
13344 1 36.4997 55.6932 20.759
13403 1 34.971 31.858 22.199
13427 1 41.3125 35.0267 22.2403
13414 1 52.5133 33.3165 23.8286
13433 1 50.9532 34.9817 22.2561
13435 1 54.0365 34.98 22.3188
13437 1 57.2326 34.9899 22.2814
13422 1 33.419 36.6175 23.8312
13441 1 31.8005 38.2514 22.2495
13442 1 33.4414 39.7602 23.7824
13443 1 34.9198 38.2615 22.3101
13426 1 39.7486 36.5589 23.8351
13444 1 36.4135 39.6987 23.877
13445 1 38.1634 38.1645 22.2459
13428 1 42.8835 36.5546 23.8037
13449 1 44.4355 38.1018 22.2226
13452 1 49.3646 39.7265 23.8071
13453 1 50.8897 38.2266 22.296
13454 1 52.463 39.6788 23.8296
13455 1 54.0329 38.0968 22.303
13436 1 55.5555 36.5179 23.8579
13461 1 31.8056 41.3133 22.2822
13462 1 33.3377 42.9206 23.8899
13463 1 34.8668 41.2461 22.3409
13466 1 39.7572 42.8997 23.8461
13467 1 41.2597 41.2838 22.2687
13469 1 44.5295 41.3507 22.1896
13487 1 41.277 44.5778 22.3353
13489 1 44.5115 44.4979 22.2412
13471 1 47.8088 41.3761 22.2034
13472 1 49.3013 42.8837 23.7613
13491 1 47.7517 44.399 22.2013
13473 1 50.8061 41.3262 22.3256
13474 1 52.5104 42.933 23.839
13475 1 54.0049 41.3525 22.3832
13495 1 53.9774 44.4928 22.3233
13476 1 55.5961 42.9224 23.8583
13482 1 33.2652 46.0444 23.9105
13503 1 34.9014 47.7372 22.3268
13486 1 39.749 46.1249 23.8738
13506 1 39.6922 49.3347 23.9747
13488 1 42.9064 46.0933 23.7412
13507 1 41.2535 47.6475 22.2831
13509 1 44.5361 47.6933 22.2579
13510 1 46.0475 49.2442 23.7797
13512 1 49.3544 49.251 23.7579
13494 1 52.5037 46.0343 23.7943
13513 1 50.9548 47.6553 22.1833
13515 1 53.9924 47.6625 22.1412
13522 1 33.4315 52.5474 23.9277
13543 1 34.9441 54.0038 22.3009
13524 1 36.4778 52.5334 24.0037
13526 1 39.6447 52.4493 23.9819
13528 1 42.8915 52.4307 23.8733
13529 1 44.534 50.8049 22.2484
13533 1 50.9727 50.8736 22.1771
13534 1 52.5341 52.51 23.7567
13553 1 50.9808 54.0893 22.2137
13555 1 54.0012 53.9912 22.2662
13536 1 55.602 52.5134 23.8696
13565 1 38.0425 57.1743 22.2482
13548 1 42.9461 55.6061 23.8837
13569 1 44.5469 57.1621 22.2586
13550 1 46.085 55.6066 23.8616
13552 1 49.3272 55.5909 23.8077
13554 1 52.601 55.5958 23.7753
13575 1 53.9636 57.1955 22.2941
13623 1 34.9936 35.0269 25.4122
13823 1 35.0118 35.0684 28.6495
13825 1 38.1219 35.0296 28.6109
14556 1 55.5252 55.6311 39.7358
13610 1 46.1458 33.3113 26.9721
13631 1 47.6891 34.9042 25.4502
13831 1 47.736 34.9632 28.6825
13635 1 54.1323 34.9789 25.4541
14554 1 52.5518 55.64 39.7201
13835 1 54.1319 34.9791 28.6324
13616 1 55.5601 33.3937 26.9919
14686 1 47.6771 57.1986 41.2979
13643 1 34.9912 38.2085 25.3956
13624 1 36.5376 36.5268 27.09
13626 1 39.6816 36.5648 27.0787
13644 1 36.5231 39.7535 27.1299
13845 1 38.0452 38.1438 28.6659
13628 1 42.9043 36.5768 27.0115
13647 1 41.2847 38.0218 25.4511
13849 1 44.5289 38.1431 28.6685
13651 1 47.7552 38.1739 25.3991
13851 1 47.6874 38.095 28.7019
13653 1 50.9649 38.248 25.3927
13654 1 52.4913 39.6664 27.038
13655 1 54.0705 38.1559 25.4576
13853 1 50.9452 38.1034 28.626
13855 1 54.0823 38.0924 28.6089
13636 1 55.5416 36.5691 27.0446
13662 1 33.4266 42.9399 26.9618
13663 1 34.9452 41.3172 25.4758
13683 1 34.8837 44.4361 25.5145
13863 1 35.0533 41.3101 28.6575
13664 1 36.499 42.8127 27.1052
13865 1 38.0601 41.286 28.7335
13885 1 38.0752 44.4042 28.6738
13668 1 42.909 42.8636 27.0369
13669 1 44.5114 41.3693 25.4927
13867 1 41.2595 41.2779 28.7416
13670 1 46.0796 42.8543 26.9897
13672 1 49.3943 42.8824 27.0248
13693 1 50.8828 44.4271 25.3916
13695 1 54.0836 44.3901 25.3698
13873 1 50.9483 41.3303 28.5569
13875 1 54.1183 41.4188 28.6127
13895 1 54.119 44.4064 28.6677
13676 1 55.6952 42.875 27.1054
13702 1 33.4223 49.3829 27.1077
13903 1 34.9576 47.7639 28.6423
13684 1 36.5449 46.159 27.107
13705 1 38.14 47.6981 25.4689
13905 1 38.0608 47.7243 28.6443
13708 1 42.8107 49.2854 27.0913
13907 1 41.3248 47.7361 28.6183
13909 1 44.5177 47.7258 28.6186
13692 1 49.3452 46.0742 27.0105
13710 1 46.0861 49.2305 27.0413
13711 1 47.6864 47.7004 25.4098
13913 1 50.9272 47.6426 28.6729
13723 1 34.9141 50.9583 25.4406
13743 1 34.9288 54.0844 25.4803
13921 1 31.8361 50.8361 28.6186
13923 1 34.9311 50.8909 28.718
13943 1 34.9284 54.11 28.648
13725 1 38.1555 50.9842 25.4469
13726 1 39.6308 52.4628 27.0141
13745 1 38.1058 54.045 25.5055
13945 1 38.1561 54.0966 28.6097
13727 1 41.2242 50.911 25.4085
13749 1 44.4393 54.1175 25.405
13927 1 41.282 50.9423 28.6578
13751 1 47.7144 54.1526 25.4064
13734 1 52.5709 52.5279 26.9734
13735 1 54.0773 50.9717 25.3449
13755 1 54.0678 54.0106 25.3515
13953 1 50.9144 54.0459 28.5544
13955 1 54.162 54.0949 28.5603
13742 1 33.3895 55.6948 26.9885
13763 1 34.9103 57.2336 25.5885
13744 1 36.5425 55.6115 27.0166
13746 1 39.5278 55.6333 27.0625
13765 1 38.0361 57.1772 25.5708
13965 1 38.0708 57.1863 28.5972
13748 1 42.8984 55.5965 27.0175
13750 1 46.0942 55.5929 26.9588
13752 1 49.3335 55.6048 26.9884
13775 1 54.0406 57.235 25.3541
13975 1 54.1364 57.1933 28.6308
13756 1 55.6658 55.6041 26.9597
14002 1 33.3443 33.3639 33.3791
14552 1 49.2426 55.6985 39.7884
14021 1 31.8232 34.8781 31.7993
13806 1 39.6177 33.3894 30.1592
14004 1 36.4962 33.3919 33.3684
14550 1 45.9958 55.6675 39.8074
14025 1 38.0209 35.0062 31.8136
13808 1 42.948 33.3236 30.1553
14685 1 44.4456 57.1757 41.3292
13812 1 49.2248 33.3996 30.2198
14010 1 46.1906 33.4225 33.3794
14011 1 47.7249 31.8557 31.7818
14031 1 47.7036 35.0137 31.7955
14014 1 52.4054 33.2986 33.5077
13816 1 55.6374 33.3391 30.2083
13822 1 33.4248 36.5734 30.2512
13842 1 33.4614 39.6919 30.254
14041 1 31.9047 38.1597 31.7315
14043 1 35.0511 38.1614 31.7692
13824 1 36.5994 36.5713 30.231
13844 1 36.643 39.711 30.2282
13846 1 39.6331 39.7906 30.2402
14024 1 36.5441 36.6659 33.3786
14044 1 36.5524 39.6898 33.4259
14045 1 38.0021 38.1914 31.7832
13848 1 42.829 39.7717 30.2039
14028 1 42.9258 36.6009 33.4666
13830 1 46.1789 36.5363 30.1344
13832 1 49.2295 36.5352 30.1444
13850 1 46.1275 39.6797 30.1718
14030 1 46.1096 36.4914 33.4297
14032 1 49.2371 36.4379 33.4056
13834 1 52.5113 36.5871 30.1061
14054 1 52.5195 39.7387 33.3919
13836 1 55.5877 36.573 30.1392
14036 1 55.5991 36.598 33.4159
14056 1 55.6304 39.8134 33.3781
13862 1 33.4278 42.886 30.1486
14062 1 33.4117 42.8803 33.5255
13864 1 36.6525 42.8311 30.1859
13866 1 39.669 42.8507 30.2819
14065 1 38.104 41.2798 31.6981
14085 1 38.1359 44.3961 31.7677
14067 1 41.2453 41.2972 31.7554
14068 1 42.8754 42.9604 33.4596
14087 1 41.3155 44.4475 31.867
14070 1 46.1209 42.8979 33.4617
14071 1 47.6603 41.3205 31.8089
14091 1 47.6511 44.5706 31.9022
13874 1 52.5643 42.8672 30.1648
14075 1 54.1303 41.3757 31.7996
14093 1 50.9193 44.553 31.8229
13876 1 55.7031 42.9382 30.1112
14076 1 55.6504 42.9169 33.3375
13902 1 33.4024 49.3302 30.1215
14102 1 33.4 49.2414 33.4737
13904 1 36.5198 49.2707 30.1285
14107 1 41.3455 47.7074 31.8905
14108 1 42.9116 49.297 33.3928
13890 1 46.1542 46.109 30.3142
14090 1 46.1383 46.0795 33.4184
14092 1 49.3515 46.0823 33.392
14111 1 47.6737 47.5793 31.8935
13894 1 52.4169 46.0906 30.2368
13914 1 52.4014 49.2371 30.2363
14113 1 50.9523 47.6706 31.8447
14114 1 52.3901 49.2214 33.4385
13922 1 33.4517 52.4857 30.1379
14122 1 33.4597 52.4666 33.4037
14143 1 34.9511 54.0061 31.7165
13924 1 36.4622 52.5568 30.1519
13926 1 39.7437 52.4356 30.2047
13928 1 42.8623 52.3911 30.2777
14127 1 41.3783 50.9243 31.8318
14128 1 42.9745 52.4462 33.4004
14129 1 44.3945 50.9002 31.8651
14149 1 44.4098 53.9787 31.8223
13932 1 49.3664 52.4491 30.2697
14131 1 47.7344 50.8879 31.7885
14133 1 50.9348 50.8185 31.7798
14153 1 50.8987 54.0709 31.8165
14155 1 54.1362 54.1311 31.8078
13942 1 33.471 55.628 30.1876
14163 1 34.9708 57.1895 31.747
13946 1 39.6339 55.6988 30.2098
14144 1 36.5302 55.6517 33.3317
14146 1 39.6925 55.7191 33.3592
14165 1 38.1538 57.1607 31.821
14167 1 41.2152 57.2259 31.8296
14152 1 49.2364 55.7198 33.4352
14154 1 52.5594 55.6156 33.3453
14175 1 54.1221 57.1958 31.8571
13956 1 55.5922 55.5914 30.1534
14156 1 55.5829 55.5749 33.3699
14221 1 31.804 34.8801 34.9118
14548 1 42.9361 55.6326 39.8413
14206 1 39.6299 33.3768 36.6327
14225 1 38.0411 34.9781 34.947
14683 1 38.2139 57.2107 41.2721
14229 1 44.5261 34.9895 34.8839
14565 1 38.1824 57.1845 38.2747
14212 1 49.3708 33.3284 36.5103
14231 1 47.6773 34.9517 34.8961
14214 1 52.3376 33.3303 36.5601
14546 1 39.7455 55.7128 39.8034
14233 1 50.8909 34.8738 35.0224
14544 1 36.5155 55.7021 39.7221
14682 1 34.905 57.1773 41.3679
14222 1 33.4496 36.6478 36.52
14241 1 31.84 38.1772 35.024
14243 1 35.0369 38.1859 34.9773
14244 1 36.5063 39.7343 36.5363
14245 1 37.9827 38.2103 34.9486
14247 1 41.281 38.1425 34.9448
14249 1 44.4839 38.0924 34.9023
14252 1 49.2884 39.7278 36.5735
14234 1 52.4318 36.5411 36.6741
14254 1 52.5031 39.6668 36.6407
14255 1 53.9904 38.1967 34.9556
14261 1 31.888 41.364 34.9857
14262 1 33.4527 42.8737 36.5461
14263 1 35.0239 41.342 35.0302
14281 1 31.8529 44.4541 34.9976
14283 1 34.9499 44.3535 35.0448
14264 1 36.4604 42.888 36.606
14265 1 38.0318 41.2911 35.065
14266 1 39.6952 42.9706 36.6319
14269 1 44.5109 41.4708 34.9441
14287 1 41.2677 44.5466 35.0811
14289 1 44.5744 44.5237 35.0014
14270 1 46.0561 42.9132 36.4857
14271 1 47.6711 41.427 35.0265
14272 1 49.3078 42.973 36.5473
14293 1 50.7964 44.5754 35.0631
14295 1 54.0798 44.4576 34.9802
14276 1 55.5971 42.897 36.4869
14303 1 34.9867 47.6821 35.0072
14286 1 39.7306 46.1218 36.6158
14304 1 36.5792 49.1593 36.527
14305 1 38.1788 47.6762 35.1242
14306 1 39.7128 49.1453 36.5571
14288 1 42.7656 46.106 36.5749
14307 1 41.3331 47.6863 35.1231
14308 1 42.8958 49.2572 36.5922
14290 1 46.0705 46.0875 36.563
14292 1 49.4257 46.1003 36.5923
14312 1 49.3865 49.2205 36.5563
14294 1 52.3877 46.1517 36.5737
14313 1 50.8885 47.666 35.0813
14314 1 52.4508 49.1584 36.5578
14315 1 53.9688 47.7231 35.0285
14316 1 55.6197 49.2321 36.5498
14323 1 34.9485 50.8421 34.9598
14343 1 34.9622 54.0305 34.9692
14324 1 36.5082 52.4221 36.4914
14325 1 38.1156 50.8179 35.0618
14329 1 44.4317 50.8349 34.9636
14347 1 41.354 54.0684 34.9787
14349 1 44.4427 54.0596 34.992
14351 1 47.7172 54.0942 34.9684
14333 1 50.9405 50.7424 35.0039
14355 1 54.1053 54.1613 34.9357
14357 1 57.2151 54.0773 34.9513
14342 1 33.4094 55.6491 36.615
14365 1 38.17 57.202 34.8877
14348 1 42.9256 55.562 36.5373
14356 1 55.5549 55.6097 36.5815
14403 1 34.9892 31.8311 38.1012
14423 1 35.0308 35.0575 38.1499
14602 1 35.0192 31.8864 41.3181
14611 1 31.869 34.9428 41.3438
14404 1 36.6114 33.3986 39.6844
14405 1 38.1633 31.8381 38.0825
14425 1 38.0955 35.0151 38.2292
14603 1 38.1554 31.8787 41.3537
14613 1 38.125 34.9707 41.2555
14408 1 42.8864 33.2372 39.7424
14409 1 44.4779 31.8004 38.1843
14563 1 34.9253 57.1849 38.1378
14605 1 44.435 31.8075 41.2907
14410 1 46.1267 33.2989 39.7743
14412 1 49.3151 33.3964 39.75
14606 1 47.8023 31.8035 41.2513
14616 1 47.7979 34.9012 41.2994
14561 1 31.8288 57.197 38.1445
14433 1 50.8983 34.9081 38.0786
14435 1 53.9623 35.0081 38.1881
14617 1 50.8945 34.9677 41.3655
14416 1 55.6453 33.4612 39.7448
14437 1 57.1094 34.9613 38.2532
14619 1 57.1572 35.0081 41.3475
14442 1 33.5482 39.7808 39.6825
14443 1 35.0525 38.2597 38.172
14621 1 31.9481 38.2408 41.2831
14622 1 35.0424 38.2661 41.2488
14424 1 36.6068 36.6436 39.6852
14426 1 39.5906 36.5901 39.714
14444 1 36.5286 39.7191 39.7485
14445 1 38.0734 38.1906 38.262
14446 1 39.6118 39.6915 39.7514
14623 1 38.1402 38.2266 41.2262
14447 1 41.1766 38.1635 38.2443
14625 1 44.4455 38.197 41.4358
14452 1 49.3109 39.6601 39.7655
14626 1 47.8352 38.2014 41.3693
14434 1 52.4684 36.56 39.6463
14453 1 50.9618 38.1395 38.1579
14454 1 52.5075 39.6322 39.6735
14455 1 53.9244 38.0949 38.1891
14628 1 53.9854 38.0747 41.3277
14436 1 55.5753 36.5203 39.7192
14461 1 31.897 41.3694 38.1611
14462 1 33.5403 42.8795 39.6608
14463 1 35.0211 41.37 38.168
14483 1 34.9866 44.397 38.2083
14632 1 35.0343 41.2765 41.1997
14642 1 34.996 44.4854 41.1543
14464 1 36.4978 42.9158 39.7408
14485 1 38.0499 44.4316 38.1653
14633 1 38.1237 41.2119 41.2937
14643 1 38.1039 44.4886 41.2928
14468 1 42.8775 42.9204 39.7867
14487 1 41.2417 44.5281 38.1001
14635 1 44.4928 41.3712 41.4514
14470 1 46.0801 42.8922 39.817
14474 1 52.4056 42.9421 39.7076
14475 1 53.9407 41.2947 38.1584
14493 1 50.8597 44.6136 38.1661
14647 1 50.8764 44.5638 41.2757
14649 1 57.2182 44.4677 41.4103
14482 1 33.5211 46.0645 39.7314
14502 1 33.4361 49.1903 39.7709
14503 1 34.9401 47.5867 38.2315
14652 1 34.9129 47.6589 41.2955
14484 1 36.5014 45.9851 39.7108
14505 1 38.1685 47.6837 38.1126
14506 1 39.7209 49.1964 39.6985
14507 1 41.2512 47.6925 38.0811
14492 1 49.415 46.1268 39.7496
14510 1 46.1239 49.4177 39.7723
14494 1 52.367 46.1609 39.7259
14513 1 50.8915 47.6179 38.1121
14515 1 53.9831 47.7019 38.1065
14657 1 50.8369 47.6677 41.3531
14658 1 54.0111 47.7072 41.3001
14516 1 55.593 49.2375 39.7875
14659 1 57.2079 47.6885 41.3245
14543 1 34.9689 54.0538 38.1397
14662 1 34.9059 50.7696 41.3914
14526 1 39.7928 52.437 39.7854
14529 1 44.5524 50.8721 38.2321
14549 1 44.4995 54.1215 38.2365
14664 1 41.2748 50.8508 41.2877
14665 1 44.5806 50.8313 41.3277
14674 1 41.3475 54.1239 41.2528
14675 1 44.5229 54.1719 41.3028
14530 1 46.0386 52.4174 39.7494
14531 1 47.649 50.8607 38.2388
14666 1 47.6346 50.8112 41.3423
14555 1 54.1088 54.1291 38.2174
14667 1 50.9376 50.8247 41.429
14668 1 54.0516 50.8651 41.3332
14678 1 54.033 54.0994 41.3036
14536 1 55.5862 52.4946 39.7578
14537 1 57.2021 50.8251 38.1297
14701 1 33.4171 33.409 42.8139
14802 1 33.3983 33.3151 46.1528
14702 1 36.654 33.424 42.8101
14703 1 39.6954 33.3831 42.8221
14806 1 39.7748 33.4304 46.1314
14825 1 38.1926 34.894 44.4296
14704 1 42.9116 33.2911 42.8338
14808 1 42.8818 33.3626 46.133
14706 1 49.3159 33.4499 42.8014
14707 1 52.4277 33.4446 42.8519
14833 1 50.8974 34.989 44.3265
14711 1 33.4076 36.6096 42.7655
14721 1 33.4875 39.7479 42.7418
14822 1 33.4453 36.5979 46.1193
14722 1 36.649 39.7666 42.7642
14723 1 39.6353 39.7707 42.9294
14845 1 38.2019 38.2569 44.4286
14846 1 39.7501 39.7487 46.005
14714 1 42.926 36.6096 42.899
14724 1 42.9756 39.8254 42.9372
14716 1 49.3676 36.538 42.852
14725 1 46.0563 39.8065 42.924
14726 1 49.3318 39.7319 42.9377
14830 1 46.1364 36.5812 46.1013
14850 1 46.0467 39.8263 46.069
14717 1 52.4586 36.5967 42.9022
14727 1 52.4994 39.6887 42.9733
14853 1 50.9002 38.168 44.3451
14855 1 54.0559 38.1376 44.4195
14718 1 55.6632 36.5691 42.9361
14856 1 55.6631 39.7006 46.0111
14862 1 33.4305 43.0755 46.0652
14881 1 31.8728 44.564 44.4846
14883 1 34.9641 44.4581 44.563
14733 1 39.6618 42.8808 42.954
14864 1 36.6141 43.003 46.0181
14865 1 38.2113 41.2871 44.3973
14885 1 38.159 44.4427 44.4241
14734 1 42.9026 42.8342 43.0104
14867 1 41.3193 41.2955 44.4138
14869 1 44.5648 41.3294 44.4751
14887 1 41.3294 44.4649 44.4006
14735 1 46.0737 42.8094 42.9988
14870 1 46.0591 42.8964 46.1202
14871 1 47.602 41.3561 44.5076
14872 1 49.2701 42.8832 46.0592
14737 1 52.4617 42.8951 42.9488
14873 1 50.9106 41.3145 44.3882
14875 1 54.0561 41.3353 44.4169
14895 1 54.0486 44.4867 44.4474
14738 1 55.6391 42.9459 42.9847
14751 1 33.415 49.1963 42.8898
14882 1 33.3904 46.09 46.071
14903 1 34.9328 47.7078 44.4314
14743 1 39.6325 45.9937 42.954
14752 1 36.4793 49.1961 42.9044
14905 1 38.098 47.6389 44.4157
14744 1 42.8955 46.0491 42.9815
14754 1 42.9413 49.3102 42.896
14909 1 44.5591 47.7146 44.519
14746 1 49.3661 46.1561 42.8997
14755 1 46.0989 49.3252 42.9025
14756 1 49.4032 49.2944 42.9166
14890 1 46.0996 46.1256 46.2075
14892 1 49.2773 46.1828 46.1239
14910 1 46.0734 49.2166 46.165
14912 1 49.3261 49.2161 46.0816
14757 1 52.4055 49.2869 42.8473
14894 1 52.4261 46.1292 46.0299
14913 1 50.7895 47.6974 44.4639
14896 1 55.7021 46.0751 45.9787
14761 1 33.3185 52.4466 42.9088
14922 1 33.3458 52.4305 46.087
14762 1 36.5827 52.4115 42.9329
14924 1 36.5619 52.3841 46.0498
14925 1 38.0571 50.9143 44.4658
14926 1 39.6867 52.4524 45.9984
14945 1 38.0743 53.9519 44.514
14947 1 41.4007 54.0776 44.4753
14930 1 46.1771 52.5096 46.0843
14951 1 47.6855 54.0625 44.5158
14767 1 52.4887 52.4362 42.8648
14933 1 50.8836 50.8351 44.4331
14934 1 52.4472 52.5028 46.0228
14955 1 53.9714 54.0384 44.5032
14936 1 55.7491 52.4726 46.0117
14771 1 33.2744 55.6751 42.9209
14944 1 36.4818 55.5992 46.0915
14774 1 42.9183 55.6259 42.7867
14948 1 42.9095 55.6276 46.1089
14775 1 46.1 55.6976 42.8631
14952 1 49.2445 55.6588 46.1132
14777 1 52.5196 55.6121 42.9195
14954 1 52.4923 55.6524 46.083
15001 1 31.8118 31.8585 47.7166
15002 1 33.337 33.3288 49.3051
15003 1 34.9207 31.8683 47.6967
15025 1 38.166 34.9816 47.6765
15027 1 41.338 34.9076 47.6011
15010 1 46.1982 33.3586 49.1677
15012 1 49.3012 33.327 49.2002
15031 1 47.7129 35.016 47.7204
15014 1 52.517 33.2923 49.3185
15016 1 55.7555 33.305 49.3002
15043 1 35.0338 38.1522 47.7168
15024 1 36.598 36.5961 49.2901
15044 1 36.5461 39.6453 49.3268
15047 1 41.3471 38.1866 47.6899
15048 1 42.9395 39.7276 49.2787
15049 1 44.6048 38.1926 47.7061
15030 1 46.1386 36.595 49.2266
15032 1 49.2783 36.5864 49.2688
15050 1 46.0269 39.7547 49.2228
15054 1 52.5304 39.7319 49.2697
15055 1 54.1746 38.2025 47.7216
15036 1 55.6968 36.5794 49.2442
15056 1 55.6911 39.7407 49.2977
15062 1 33.4266 42.9984 49.2313
15081 1 31.9113 44.5641 47.6778
15083 1 34.8684 44.4859 47.6241
15066 1 39.7407 42.9321 49.3507
15085 1 38.1215 44.4107 47.6359
15069 1 44.5562 41.264 47.6878
15089 1 44.5959 44.5436 47.6586
15091 1 47.6305 44.5654 47.5891
15073 1 50.8787 41.3406 47.6321
15082 1 33.4057 46.071 49.1547
15101 1 31.8123 47.633 47.6464
15103 1 34.857 47.5736 47.6238
15107 1 41.3205 47.6411 47.6825
15109 1 44.6478 47.6818 47.7054
15090 1 46.0887 46.1192 49.1485
15110 1 46.0512 49.35 49.2383
15111 1 47.6168 47.7013 47.6123
15113 1 50.8313 47.6893 47.5755
15114 1 52.4645 49.2436 49.258
15096 1 55.6531 46.154 49.3425
15116 1 55.7335 49.271 49.317
15123 1 34.9314 50.897 47.5463
15143 1 34.9542 54.0421 47.5544
15125 1 38.1064 50.8964 47.5793
15129 1 44.6537 50.8631 47.6825
15147 1 41.373 54.0641 47.6119
15130 1 46.1145 52.4156 49.2726
15132 1 49.2547 52.5447 49.1815
15151 1 47.7769 54.0766 47.6882
15153 1 50.8508 54.1547 47.6024
15142 1 33.3463 55.7765 49.2129
15152 1 49.2731 55.6863 49.124
15156 1 55.7173 55.7056 49.2872
15201 1 31.8362 31.8353 50.8881
15202 1 33.3342 33.3819 52.4173
15221 1 31.8622 34.91 50.876
15204 1 36.6195 33.3985 52.3935
15205 1 38.1278 31.8148 50.9238
15206 1 39.7251 33.3735 52.3339
15225 1 38.1749 34.9686 50.9086
15207 1 41.3494 31.802 50.8762
15208 1 42.8859 33.3891 52.3812
15227 1 41.3032 34.9329 50.9391
15429 1 44.4962 34.9403 53.9719
15210 1 46.1475 33.419 52.4586
15212 1 49.4091 33.3428 52.4405
15431 1 47.7304 34.9024 53.9359
15214 1 52.5107 33.2597 52.4242
15433 1 50.9417 34.9135 53.9369
15222 1 33.3798 36.6162 52.3818
15242 1 33.366 39.7742 52.4333
15243 1 35.0218 38.2036 50.8955
15226 1 39.7665 36.5937 52.3656
15244 1 36.558 39.7407 52.472
15245 1 38.1474 38.1714 50.8865
15246 1 39.791 39.6873 52.4345
15247 1 41.3382 38.1791 50.9293
15248 1 42.8516 39.7425 52.3755
15447 1 41.2925 38.1475 53.9599
15250 1 46.1186 39.7165 52.4131
15251 1 47.678 38.1645 50.7995
15252 1 49.263 39.6623 52.4066
15451 1 47.7028 38.232 53.9544
15253 1 50.8976 38.16 50.8426
15455 1 54.2456 38.1238 54.075
15236 1 55.7647 36.5852 52.5599
15256 1 55.7181 39.7306 52.5462
15283 1 34.9563 44.4797 50.8575
15461 1 31.8054 41.2632 53.9957
15463 1 34.9775 41.2852 54.0118
15264 1 36.5714 42.8776 52.4876
15285 1 38.0903 44.455 50.9343
15465 1 38.0896 41.3628 54.0437
15267 1 41.3464 41.2265 50.9054
15269 1 44.5032 41.23 50.872
15287 1 41.3154 44.4842 50.8774
15487 1 41.2781 44.4783 54.0903
15489 1 44.541 44.4573 54.0765
15270 1 46.0287 42.9311 52.444
15274 1 52.4842 42.9141 52.4404
15275 1 54.1086 41.2291 50.8337
15293 1 50.8619 44.5296 50.888
15475 1 54.1789 41.2704 54.0825
15493 1 50.8331 44.5783 54.1037
15303 1 34.9569 47.6193 50.872
15503 1 35.0638 47.619 54.0305
15284 1 36.5103 46.0749 52.4474
15304 1 36.5286 49.1648 52.5379
15505 1 38.0861 47.5862 54.0866
15288 1 42.7986 46.092 52.4597
15307 1 41.3872 47.665 50.9556
15308 1 42.897 49.2863 52.4612
15507 1 41.3615 47.6913 54.0431
15292 1 49.3327 46.1367 52.5226
15310 1 46.0601 49.3962 52.4124
15511 1 47.7174 47.636 54.0435
15315 1 54.0942 47.7269 50.7698
15513 1 50.8812 47.6468 54.1189
15515 1 54.0253 47.7387 54.1648
15517 1 57.222 47.7612 54.114
15543 1 34.9906 54.1057 54.1219
15326 1 39.7257 52.4191 52.5391
15525 1 38.1788 50.9461 54.1256
15329 1 44.6121 50.8491 50.8815
15529 1 44.5014 50.8441 54.0022
15549 1 44.4836 54.0716 54.0355
15330 1 46.076 52.4153 52.4212
15331 1 47.5778 50.9229 50.8097
15535 1 54.1169 50.841 54.1885
15553 1 50.8231 54.1587 54.1103
15346 1 39.6904 55.7228 52.4727
15348 1 42.9859 55.6598 52.47
15352 1 49.3375 55.6953 52.4796
15402 1 33.3274 33.3842 55.7452
15621 1 31.9102 34.9755 57.2233
15629 1 44.4386 34.9648 57.225
15635 1 54.1442 35.0475 57.155
15422 1 33.427 36.5691 55.7061
15442 1 33.3894 39.8163 55.6137
15424 1 36.5686 36.5811 55.7049
15428 1 42.9208 36.546 55.6988
15434 1 52.6307 36.5923 55.6515
15655 1 54.1817 38.1647 57.1941
15436 1 55.7442 36.6143 55.6499
15456 1 55.7049 39.6386 55.5764
15657 1 57.2177 38.1608 57.0915
15464 1 36.5495 42.8698 55.6303
15466 1 39.6631 42.9174 55.6082
15685 1 38.0325 44.5007 57.1645
15468 1 42.9277 42.9844 55.5857
15689 1 44.492 44.4381 57.1419
15470 1 46.0387 42.9608 55.6565
15472 1 49.3196 42.9256 55.6536
15671 1 47.6707 41.3826 57.1922
15476 1 55.6636 42.8112 55.5809
15484 1 36.6035 46.1321 55.6725
15486 1 39.6584 46.1295 55.6028
15508 1 42.8659 49.3093 55.5915
15490 1 46.0474 46.071 55.6089
15492 1 49.3607 46.1795 55.5789
15494 1 52.4133 46.1932 55.5978
15514 1 52.5016 49.2914 55.6412
15713 1 50.9621 47.6901 57.213
15516 1 55.6393 49.3473 55.6942
15524 1 36.6312 52.4914 55.7399
15526 1 39.7175 52.4361 55.7784
15745 1 38.1851 54.0323 57.2048
15528 1 42.9199 52.5333 55.6828
15727 1 41.278 50.914 57.182
15747 1 41.2454 54.1069 57.2124
15532 1 49.258 52.5275 55.7121
15731 1 47.7773 50.983 57.2399
15536 1 55.6673 52.4384 55.7166
15542 1 33.4172 55.6346 55.6433
15761 1 31.8199 57.2229 57.1826
15546 1 39.7272 55.6826 55.7648
15552 1 49.3217 55.6835 55.6943
15556 1 55.6828 55.7483 55.7025
