ITEM: TIMESTEP
0
ITEM: NUMBER OF ATOMS
2737
ITEM: BOX BOUNDS pp pp pp
0.0000000000000000e+00 6.4203999999999994e+01
0.0000000000000000e+00 6.4203999999999994e+01
0.0000000000000000e+00 6.4203999999999994e+01
ITEM: ATOMS id type x y z
9381 2 32.0674 28.8966 19.248
5015 2 22.2886 32.0706 16.0597
5011 2 16.1179 32.0282 16.1057
4811 2 16.1187 32.0984 12.922
5009 2 13.0506 32.0359 16.0818
4809 2 12.9035 32.0508 12.9337
4619 2 28.909 32.0612 9.64476
1398 2 27.2262 30.5256 20.879
4613 2 19.315 32.0336 9.69354
1186 2 8.03524 30.4615 17.5816
1396 2 24.0442 30.539 20.7902
8861 2 32.0524 9.60214 12.878
449 2 12.843 6.42131 6.54219
457 2 25.6985 6.4602 6.43687
448 2 11.2193 7.93852 8.01143
466 2 8.02865 11.2149 8.07485
454 2 20.8854 8.07804 8.11065
474 2 20.9354 11.296 8.08015
475 2 22.3687 9.66104 6.47285
478 2 27.3203 11.2838 8.08663
480 2 30.4923 11.3284 8.07016
486 2 7.96335 14.2975 8.12533
492 2 17.7763 14.4607 8.0545
496 2 23.9333 14.3544 7.9794
510 2 14.3497 17.555 7.99202
518 2 27.2307 17.6722 7.94768
1198 2 27.2396 30.5452 17.5712
528 2 11.239 20.8278 8.03323
532 2 17.6454 20.9073 7.91559
551 2 16.0461 22.4306 6.45177
538 2 27.265 20.8915 7.95594
548 2 11.1822 24.2099 7.91705
550 2 14.5031 23.9896 8.08632
570 2 14.4057 27.1995 8.08552
588 2 11.1678 30.4578 8.07496
594 2 20.8357 30.432 8.14748
600 2 30.4478 30.5038 7.98913
649 2 12.8008 6.44706 9.55104
651 2 16.0911 6.45852 9.68519
653 2 19.2868 6.51564 9.69992
667 2 9.62036 9.63611 9.56622
668 2 11.1116 11.1761 11.1696
652 2 17.5738 8.00881 11.1614
671 2 16.0878 9.56973 9.72049
654 2 20.8578 8.11606 11.2352
674 2 20.808 11.2185 11.1776
675 2 22.2606 9.63569 9.65369
680 2 30.48 11.185 11.2519
685 2 6.4935 12.817 9.61258
686 2 8.05542 14.228 11.1307
687 2 9.55972 12.7852 9.60871
689 2 12.8099 12.7481 9.65258
693 2 19.3095 12.7485 9.55502
695 2 22.3975 12.8261 9.56661
699 2 28.9916 12.7421 9.64327
700 2 30.4266 14.4254 11.1181
706 2 8.04578 17.6869 11.2921
709 2 12.8581 16.0551 9.60452
712 2 17.7299 17.6062 11.1254
713 2 19.222 16.0419 9.60659
720 2 30.5338 17.7931 11.2424
751 2 16.1058 22.508 9.60362
738 2 27.3202 20.9277 11.2319
759 2 28.7192 22.3237 9.52864
765 2 6.42918 25.6303 9.58252
748 2 11.4085 24.0687 11.2481
769 2 12.9105 25.6373 9.57236
770 2 14.4754 27.2552 11.2968
752 2 17.6261 24.0263 11.2469
754 2 20.9272 24.1207 11.2975
775 2 22.3467 25.6074 9.62775
777 2 25.676 25.6719 9.65377
1194 2 20.8224 30.4368 17.4972
787 2 9.69685 28.9484 9.63887
793 2 19.3062 28.9482 9.66535
794 2 20.7004 30.4469 11.2739
795 2 22.3806 28.9844 9.66592
796 2 24.1122 30.3611 11.1724
797 2 25.5646 28.9429 9.59099
799 2 28.9631 28.984 9.57098
800 2 30.4124 30.4775 11.1219
1378 2 27.2213 27.2143 20.9069
851 2 16.0505 6.4357 12.809
859 2 28.9037 6.54962 12.9597
866 2 8.12714 11.1288 14.3941
867 2 9.61534 9.66723 12.8317
850 2 14.4413 8.01776 14.4123
870 2 14.4279 11.2246 14.4274
1069 2 12.8981 9.52975 16.051
873 2 19.2892 9.57941 12.6483
1073 2 19.2706 9.73808 15.996
874 2 20.7503 11.209 14.3595
875 2 22.3156 9.65693 12.7714
858 2 27.2072 7.89783 14.4458
1077 2 25.7321 9.55136 15.9572
860 2 30.5434 7.993 14.4001
886 2 8.14359 14.3265 14.4736
1087 2 9.60075 12.818 15.9707
891 2 15.9908 12.7549 12.8671
893 2 19.3984 12.6621 12.738
1093 2 19.3627 12.7952 16.0457
897 2 25.6029 12.8283 12.7828
925 2 6.49377 19.0634 12.845
906 2 8.08171 17.7344 14.3394
927 2 9.63933 19.1557 12.8508
1109 2 12.8509 15.9035 16.1827
1129 2 12.8011 19.2962 15.9918
1133 2 19.347 19.2825 16.0296
914 2 20.8827 17.6719 14.351
915 2 22.4715 16.0865 12.9345
935 2 22.482 19.2264 12.9773
916 2 24.0467 17.7236 14.3911
937 2 25.6199 19.3385 12.8802
1117 2 25.6069 16.1338 15.9137
1137 2 25.6461 19.3457 15.8838
1192 2 17.6481 30.5922 17.6218
928 2 11.2736 20.7913 14.4289
949 2 12.7885 22.5694 12.9428
953 2 19.2331 22.5892 12.7846
1153 2 19.1973 22.5845 16.0794
1155 2 22.4846 22.4122 16.053
936 2 24.0504 20.8188 14.4227
938 2 27.229 20.8357 14.3921
959 2 28.7933 22.3677 12.8715
946 2 8.17901 24.1318 14.5246
948 2 11.2759 24.0438 14.5267
968 2 11.3282 27.3245 14.5265
1167 2 9.74645 25.6854 16.0197
950 2 14.4472 24.0593 14.3913
952 2 17.7505 23.9549 14.4394
972 2 17.6806 27.469 14.3857
974 2 20.8353 27.4065 14.4715
975 2 22.4028 25.7369 12.8976
976 2 24.0171 27.3339 14.3456
960 2 30.4178 24.0615 14.4124
1179 2 28.9562 25.6382 15.9582
1185 2 6.45929 29.0175 16.1389
990 2 14.521 30.5009 14.4528
1189 2 12.9009 28.9026 16.0104
991 2 16.0007 28.8506 12.898
993 2 19.3061 28.8269 12.8957
1193 2 19.1983 28.8637 16.0547
1195 2 22.4793 28.8279 15.9564
996 2 23.9858 30.4847 14.4784
997 2 25.535 28.9367 12.8763
1190 2 14.4685 30.5125 17.5698
1388 2 11.2573 30.5372 20.8602
1386 2 8.04533 30.5817 20.8739
1247 2 9.65795 6.5334 19.2058
1249 2 12.8298 6.57936 19.148
1048 2 11.2864 7.92932 17.6236
1050 2 14.3839 8.03813 17.5667
1272 2 17.6707 11.3047 20.7047
1074 2 20.6943 11.2855 17.5484
1058 2 27.3037 7.94802 17.5917
1076 2 24.1105 11.1655 17.5772
1060 2 30.4832 7.95361 17.704
1260 2 30.5112 7.88514 20.8562
1280 2 30.4808 11.234 20.7841
1088 2 11.2784 14.4229 17.6482
1287 2 9.74308 12.8794 19.1858
1090 2 14.3828 14.4319 17.7148
1289 2 12.8353 12.9684 19.0651
1291 2 16.0451 12.8947 19.2876
1292 2 17.5839 14.484 20.7328
1293 2 19.2418 12.809 19.2083
1094 2 20.7533 14.408 17.632
1100 2 30.4304 14.5237 17.6776
1300 2 30.3948 14.563 20.9343
1325 2 6.44441 19.3524 19.2166
1308 2 11.2755 17.5107 20.8912
1110 2 14.2416 17.6574 17.636
1309 2 12.8208 16.0171 19.1891
1329 2 12.7943 19.1463 19.3306
1313 2 19.2049 15.9572 19.2423
1316 2 24.0033 17.6967 20.9657
1318 2 27.3568 17.6262 20.8599
1319 2 28.881 16.0504 19.2936
1339 2 28.7646 19.3423 19.2632
1345 2 6.42421 22.4666 19.2454
1126 2 8.04428 20.9188 17.8247
1328 2 11.1625 20.8361 20.8427
1347 2 9.71082 22.3547 19.27
1332 2 17.5286 20.8643 20.8843
1134 2 20.7403 20.9169 17.4548
1138 2 27.2634 20.8326 17.6741
1140 2 30.3746 20.8999 17.7215
1359 2 28.8344 22.4365 19.1685
1168 2 11.3189 27.2593 17.6277
1366 2 8.09407 27.2395 20.8927
1150 2 14.4088 24.1617 17.6818
1369 2 12.8518 25.6806 19.1614
1152 2 17.7261 24.0783 17.625
1172 2 17.7866 27.2797 17.5764
1372 2 17.6009 27.2291 20.8328
1373 2 19.1132 25.7025 19.1175
1375 2 22.6419 25.7103 19.0856
1156 2 23.9403 24.0679 17.5019
1176 2 23.9729 27.3317 17.6199
1376 2 24.0205 27.151 20.7957
10641 2 32.0755 12.8212 41.6904
10481 2 32.0608 12.8369 38.5058
1451 2 16.0791 6.46353 22.477
1466 2 8.03585 11.3958 23.9577
1467 2 9.63208 9.80096 22.5189
1468 2 11.2879 11.2969 23.8287
1469 2 12.8021 9.7067 22.4494
1452 2 17.5814 8.12276 24.0154
1473 2 19.1653 9.59196 22.461
1478 2 27.3514 11.2391 24.094
1460 2 30.6065 7.96433 23.9796
1485 2 6.44818 12.8632 22.5385
1486 2 8.14205 14.419 24.027
1487 2 9.69128 12.8747 22.6392
1488 2 11.2652 14.5405 23.9779
1489 2 12.8389 12.9284 22.607
1490 2 14.3577 14.4855 23.9235
1496 2 24.1201 14.5085 24.0031
1507 2 9.74273 16.0005 22.5244
1508 2 11.1767 17.5329 24.0518
1527 2 9.65728 19.1703 22.4434
1509 2 12.7219 16.025 22.5101
1511 2 16.0768 15.9812 22.4443
1512 2 17.5352 17.5931 24.0046
1531 2 16.0425 19.2011 22.4189
1535 2 22.5289 19.2839 22.5376
1517 2 25.6015 16.0943 22.4516
1519 2 28.9222 16.0807 22.4171
1547 2 9.66164 22.3953 22.4562
1551 2 16.0167 22.3963 22.3825
1534 2 20.9054 20.783 23.9865
1536 2 24.1297 20.9318 24.0526
1538 2 27.251 20.9353 24.1711
1557 2 25.6854 22.5113 22.6915
1566 2 8.08544 27.2562 24.1265
1567 2 9.53742 25.7977 22.4629
1571 2 16.0536 25.7166 22.3238
1574 2 20.8491 27.3098 24.0959
1556 2 24.2277 24.058 24.0491
1558 2 27.2351 24.0244 24.1686
1577 2 25.668 25.6493 22.476
1586 2 8.13276 30.4526 24.1449
1590 2 14.3518 30.573 24.0786
1592 2 17.6754 30.4937 23.9896
1599 2 28.7735 28.8441 22.3624
2596 2 23.9963 30.5134 40.2675
2698 2 22.4961 28.8224 41.7352
2697 2 19.1624 28.8444 41.8409
1869 2 12.8355 9.70469 29.0468
1671 2 16.1179 9.62095 25.6945
1672 2 17.6251 11.2045 27.3624
1873 2 19.2564 9.68886 28.8763
1654 2 20.7961 7.93635 27.2961
1678 2 27.407 11.2466 27.1993
1688 2 11.3452 14.5828 27.181
1692 2 17.5743 14.3828 27.4136
1891 2 16.0958 12.7267 28.8555
1893 2 19.1127 12.7339 28.8691
1895 2 22.4258 12.834 29.0057
1698 2 27.3307 14.4004 27.2504
1699 2 28.7852 12.8009 25.7217
1706 2 8.12986 17.7385 27.1344
1707 2 9.74039 16.0194 25.6302
1708 2 11.1866 17.575 27.1992
1727 2 9.65275 19.1142 25.6612
1927 2 9.58027 19.1231 28.733
1709 2 12.7631 15.9759 25.6259
1909 2 12.7079 16.0656 28.7474
1713 2 19.2048 16.0557 25.7012
1731 2 16.0163 19.1445 25.5658
1911 2 16.0783 15.9202 28.7802
1931 2 16.0303 19.2825 28.9254
1714 2 20.8449 17.6232 27.2323
1935 2 22.3472 19.1471 28.8824
1718 2 27.2795 17.737 27.2983
1937 2 25.8916 19.2537 28.8655
1739 2 28.7146 19.2718 25.7848
2592 2 17.5501 30.6319 40.2035
1745 2 6.42884 22.4784 25.7366
1749 2 12.8012 22.4196 25.6521
1738 2 27.2878 20.8443 27.2118
1757 2 25.705 22.3976 25.6297
1759 2 28.738 22.4245 25.6603
1765 2 6.43398 25.7058 25.7155
1965 2 6.42416 25.7275 28.8454
1746 2 7.89065 24.173 27.2065
1767 2 9.57946 25.7435 25.7023
1768 2 11.048 27.3638 27.2064
1772 2 17.5539 27.4051 27.3323
1975 2 22.4958 25.7528 28.854
1776 2 24.0066 27.2202 27.386
1977 2 25.6116 25.7145 28.8403
1779 2 28.8337 25.6764 25.6637
1780 2 30.3157 27.2194 27.2595
1979 2 28.9895 25.6985 28.8364
1787 2 9.63805 28.9171 25.6913
1788 2 11.173 30.5146 27.2487
1987 2 9.66749 28.7881 28.8843
1790 2 14.5091 30.5942 27.255
1991 2 16.0309 28.9327 28.7726
1798 2 27.2541 30.4431 27.3041
1799 2 28.8838 28.9043 25.8871
1800 2 30.4707 30.4366 27.2717
2695 2 12.7498 28.9928 41.7559
1868 2 11.2276 11.1743 30.5365
2046 2 8.05374 8.01341 33.5935
2066 2 8.03834 11.3262 33.5502
2067 2 9.5953 9.70388 32.1265
1870 2 14.5137 11.2592 30.3745
2070 2 14.5094 11.2637 33.8107
1872 2 17.6739 11.2996 30.4797
2071 2 15.9821 9.79994 32.0803
1874 2 20.756 11.2874 30.3979
1878 2 27.3674 11.1082 30.6162
2056 2 24.0225 7.94898 33.661
2058 2 27.4152 8.07437 33.7042
2076 2 24.0977 11.2231 33.6691
1860 2 30.5025 8.05676 30.5578
2079 2 28.8689 9.54352 32.0788
2085 2 6.45783 12.7789 32.1455
2088 2 11.3158 14.4755 33.5863
2092 2 17.5587 14.4433 33.8279
2093 2 19.1649 12.798 32.0678
1896 2 24.0236 14.3704 30.4392
1898 2 27.3216 14.4603 30.5348
2100 2 30.4181 14.3911 33.7466
2107 2 9.69637 15.9384 32.1481
2127 2 9.60088 19.2371 32.118
2109 2 12.8857 15.9952 32.1474
2110 2 14.4142 17.5189 33.704
1914 2 20.8698 17.6201 30.484
1918 2 27.2815 17.7034 30.5114
2116 2 24.0307 17.6667 33.7176
1920 2 30.4504 17.7117 30.5334
2139 2 28.8614 19.2571 31.9758
1932 2 17.5539 20.7615 30.5318
2151 2 16.0424 22.5028 32.071
1938 2 27.311 20.7844 30.502
2138 2 27.4197 20.7559 33.7649
1966 2 8.04339 27.284 30.4587
1968 2 11.0834 27.3512 30.563
2146 2 7.96359 24.113 33.6588
2167 2 9.53692 25.7516 32.0109
2150 2 14.5211 23.9856 33.7639
1952 2 17.5909 24.0818 30.5453
1974 2 20.8701 27.2022 30.3811
2158 2 27.3074 23.9987 33.7672
2178 2 27.2049 27.3647 33.7414
2186 2 8.01531 30.4313 33.6804
2187 2 9.6065 28.8799 32.0293
2190 2 14.5508 30.4828 33.7575
2191 2 16.0404 29.0855 32.1632
1994 2 20.7992 30.6637 30.5288
1996 2 24.0835 30.5373 30.5126
1998 2 27.2577 30.5552 30.4926
2196 2 23.9214 30.506 33.6539
2198 2 27.2852 30.5704 33.8363
2200 2 30.6404 30.5359 33.7671
2589 2 12.8856 28.9177 38.5156
2588 2 11.3692 30.4209 40.1998
2259 2 28.8001 6.44862 35.2439
2266 2 8.16076 11.1461 37.0107
2269 2 13.0288 9.74027 35.2806
2270 2 14.4802 11.3136 36.9108
2252 2 17.6619 7.92206 37.0049
2280 2 30.4589 11.2655 37.0718
2288 2 11.3249 14.4521 37.0449
2291 2 16.0046 12.804 35.3304
2292 2 17.5294 14.4457 36.8869
2299 2 29.0648 12.8204 35.3307
2300 2 30.4264 14.3019 36.9397
2310 2 14.3973 17.5744 36.994
2311 2 16.0196 16.0294 35.4243
2312 2 17.6245 17.5869 36.881
2313 2 19.1144 15.9601 35.3883
2335 2 22.4516 19.2056 35.2608
2318 2 27.3389 17.6928 36.8359
2339 2 28.8072 19.2382 35.3355
2326 2 8.04675 21.0106 37.0269
2328 2 11.2573 20.8572 37.0583
2330 2 14.4556 20.861 36.9153
2351 2 15.9692 22.5035 35.3622
2353 2 19.1967 22.5427 35.4114
2359 2 28.8518 22.4768 35.2705
2365 2 6.43266 25.5284 35.197
2370 2 14.4095 27.3408 37.0029
2352 2 17.6095 24.0404 36.91
2372 2 17.6316 27.3933 36.9179
2354 2 20.7264 24.0778 36.987
2374 2 20.7421 27.3533 37.0035
2376 2 24.042 27.2579 36.9471
2390 2 14.5352 30.5061 36.9914
2391 2 15.9506 28.9106 35.5209
2393 2 19.2183 28.8554 35.5139
2396 2 24.0265 30.5354 36.9463
9561 2 32.0985 25.7683 22.601
2624 2 9.70543 6.46565 41.7867
2625 2 12.803 6.45601 41.75
2451 2 16.0758 6.43023 38.4161
2453 2 19.263 6.45936 38.5321
2627 2 19.244 6.46643 41.7441
2457 2 25.8073 6.43258 38.6184
2630 2 28.7928 6.46808 41.6685
2448 2 11.2415 7.95723 40.2297
2467 2 9.78525 9.6642 38.6466
2468 2 11.216 11.2391 40.0892
2636 2 16.0497 9.55377 41.7894
2454 2 20.791 7.88019 40.1773
2458 2 27.2524 7.97006 40.0949
2477 2 25.8076 9.62213 38.6773
2478 2 27.3816 11.2342 39.9444
2479 2 28.8729 9.60385 38.5809
2488 2 11.2148 14.5282 40.2219
2490 2 14.4582 14.4329 40.0697
2491 2 15.989 12.8525 38.5652
2648 2 22.5383 12.8895 41.7713
2496 2 24.1125 14.4672 40.2608
2499 2 28.973 12.8643 38.5491
2500 2 30.4871 14.3157 40.0975
2506 2 8.09675 17.6278 40.2551
2654 2 9.55491 16.051 41.8387
2509 2 12.8316 15.9616 38.6268
2529 2 12.8605 19.2842 38.4241
2665 2 12.8056 19.2713 41.8405
2533 2 19.2514 19.2689 38.5456
2667 2 19.2817 19.316 41.8682
2535 2 22.382 19.3443 38.6553
2668 2 22.4212 19.2976 41.8848
2518 2 27.23 17.6564 40.2768
2659 2 25.6987 16.0085 41.7282
2669 2 25.6341 19.3169 41.7802
2670 2 28.8287 19.1313 41.6952
2547 2 9.60273 22.4369 38.5366
2674 2 9.56452 22.43 41.7882
2534 2 20.8364 20.7872 40.2712
2678 2 22.3802 22.414 41.7615
2680 2 28.8376 22.5289 41.6982
2683 2 6.44774 25.6717 41.6948
2546 2 8.07212 24.0598 40.3115
2566 2 7.99182 27.2184 40.3245
2684 2 9.54673 25.6762 41.6822
2569 2 12.8614 25.7143 38.485
2573 2 19.2248 25.7065 38.3915
2687 2 19.2796 25.6637 42.0183
2558 2 27.2712 24.0964 40.1824
2576 2 23.9885 27.2545 40.2871
2689 2 25.577 25.651 41.7287
2579 2 28.8596 25.6506 38.5782
5417 2 25.6806 32.0682 22.2709
5817 2 25.716 31.9812 28.9534
14201 2 32.0813 32.0545 35.2571
6015 2 22.443 32.0901 32.1659
6211 2 15.9639 32.0954 35.2722
6605 2 12.7682 32.1019 41.7256
6411 2 15.9656 32.041 38.6072
6609 2 25.6528 32.0275 41.8193
2851 2 16.0584 6.53192 44.9586
2723 2 8.0695 8.05865 43.3951
2734 2 11.3243 11.2811 43.4862
2866 2 8.06789 11.3622 46.5921
2850 2 14.4293 8.18793 46.5498
2869 2 12.8435 9.67095 44.9837
2726 2 17.554 8.1065 43.4249
2871 2 15.9966 9.58669 45.0431
2875 2 22.5057 9.58773 45.025
2856 2 24.0804 7.99433 46.6284
2858 2 27.201 8.01729 46.576
2878 2 27.3229 11.1997 46.5537
2740 2 30.4225 11.3515 43.2882
2879 2 28.8237 9.67687 45.0302
2743 2 8.03351 14.5579 43.3671
2888 2 11.203 14.5657 46.6838
2745 2 14.2983 14.4202 43.503
2889 2 12.8912 13.0031 45.0722
2890 2 14.4986 14.5274 46.7365
2746 2 17.6933 14.5994 43.48
2749 2 27.2235 14.5973 43.2976
2898 2 27.3871 14.5602 46.6155
2905 2 6.58535 16.1837 44.9229
2753 2 8.106 17.6138 43.4745
2906 2 8.14207 17.6519 46.6663
2908 2 11.2142 17.686 46.7126
2927 2 9.64723 19.1873 45.0803
2910 2 14.4042 17.6113 46.7291
2912 2 17.6463 17.529 46.6294
2913 2 19.2149 16.2029 44.9864
2757 2 20.7688 17.7311 43.4126
2914 2 20.7365 17.6178 46.5081
2915 2 22.3939 16.2758 45.0319
2916 2 24.0866 17.7311 46.5291
2918 2 27.3071 17.6931 46.5881
2937 2 25.6416 19.1856 45.051
2919 2 28.6738 16.0187 44.9533
2763 2 8.14968 20.907 43.4477
2928 2 11.1671 20.7716 46.6274
2947 2 9.65239 22.3684 44.9905
2930 2 14.5231 20.8875 46.6181
2766 2 17.61 20.8539 43.3768
2932 2 17.5442 20.9671 46.6369
2951 2 16.0541 22.4351 44.9758
2768 2 24.0407 20.7525 43.3127
2938 2 27.1239 20.6751 46.5723
2940 2 30.5599 20.7566 46.6625
2775 2 14.5069 23.9611 43.5241
2776 2 17.6791 24.1236 43.4139
2786 2 17.7912 27.28 43.3548
2972 2 17.727 27.2737 46.4587
2973 2 19.2325 25.7213 44.9266
2777 2 20.7829 24.0866 43.3735
2787 2 20.7653 27.3664 43.4269
2958 2 27.2853 24.0992 46.5834
2976 2 23.8877 27.35 46.6085
2794 2 11.2907 30.4867 43.4204
2987 2 9.69267 28.9238 44.8487
2989 2 12.8047 28.9257 44.9078
2993 2 19.2202 28.7849 44.9722
2994 2 20.8523 30.3085 46.5668
2995 2 22.3466 28.8094 45.0455
2799 2 27.1212 30.408 43.3719
2997 2 25.6439 28.8964 44.9494
2800 2 30.525 30.4854 43.3033
3000 2 30.307 30.5217 46.6645
3048 2 11.2103 8.17245 49.8042
3066 2 7.99055 11.2743 49.9173
3069 2 12.8243 9.63051 48.2108
3071 2 15.9631 9.58305 48.1737
3073 2 19.2911 9.58353 48.2221
3054 2 20.9127 8.05761 49.796
3077 2 25.7133 9.5351 48.0211
3086 2 8.00762 14.6016 49.8248
3088 2 11.3212 14.5688 49.7901
3091 2 15.9774 13.013 48.1588
3092 2 17.5922 14.4456 49.5994
3093 2 19.1727 12.9116 48.2252
3099 2 28.731 12.8956 47.9792
3107 2 9.73364 16.1042 48.2084
3108 2 11.2016 17.6347 49.6961
3127 2 9.69422 19.1778 48.1375
3109 2 12.7593 16.0513 48.1414
3129 2 12.7939 19.1485 48.1422
3111 2 16.0514 16.0713 48.1793
3112 2 17.6408 17.6305 49.7253
3113 2 19.1915 16.187 48.2006
3114 2 20.7713 17.6871 49.8106
3137 2 25.6184 19.2158 48.0903
3119 2 28.7614 16.1132 48.0931
3139 2 28.8291 19.285 47.9706
3126 2 8.14878 20.8437 49.8469
3147 2 9.64747 22.3354 48.2245
3151 2 16.029 22.4573 48.1972
3134 2 20.8338 20.9039 49.8352
3155 2 22.3526 22.3503 48.2928
3136 2 23.9158 20.9441 49.7654
3165 2 6.47909 25.7303 48.1964
3166 2 7.89369 27.1756 49.8173
3168 2 11.3318 27.235 49.7722
3150 2 14.4508 23.9992 49.6716
3169 2 12.8563 25.7143 48.225
3170 2 14.3532 27.3351 49.7294
3152 2 17.6335 24.0759 49.801
3172 2 17.763 27.2587 49.9228
3154 2 20.8899 24.047 49.7791
3175 2 22.4093 25.6644 48.2023
3178 2 27.2586 27.3034 49.6865
3179 2 28.7425 25.6746 48.1493
3188 2 11.2264 30.4924 49.9093
3194 2 20.8031 30.4768 49.716
3195 2 22.3619 28.9758 48.1157
3199 2 28.8345 28.9161 48.1525
11521 2 32.1006 19.3762 54.6202
3447 2 9.65874 6.55973 54.6173
3249 2 12.8515 6.45675 51.3989
3453 2 19.3588 6.44478 54.519
3255 2 22.3886 6.45155 51.3265
3267 2 9.64674 9.75818 51.3524
3268 2 11.1614 11.3979 52.8879
3270 2 14.2674 11.3973 52.9935
3272 2 17.7358 11.2111 52.9369
3273 2 19.2916 9.59994 51.4147
3254 2 20.8794 8.05646 52.9292
3275 2 22.4116 9.56137 51.3838
3276 2 24.0646 11.1924 53.0217
3477 2 25.6115 9.57958 54.5355
3260 2 30.3934 7.90046 52.8525
3285 2 6.43377 12.9536 51.3898
3288 2 11.2722 14.5348 53.0048
3289 2 12.6862 12.9158 51.406
3489 2 12.6192 12.8629 54.4963
3495 2 22.4463 12.7594 54.497
3296 2 24.0225 14.42 53.0021
3298 2 27.2098 14.4372 52.9147
3497 2 25.6135 12.8247 54.4394
3299 2 28.7735 12.9349 51.3789
3525 2 6.46656 19.2763 54.4768
3306 2 8.05516 17.6727 53.0688
3327 2 9.57737 19.2234 51.4263
3507 2 9.61681 15.9105 54.5804
3527 2 9.47314 19.278 54.5395
3309 2 12.7034 16.0767 51.3913
3310 2 14.3791 17.5549 52.9671
3509 2 12.7595 16.0162 54.5464
3333 2 19.333 19.2847 51.3788
3531 2 15.9924 19.1994 54.5045
3533 2 19.2642 19.2917 54.4649
3314 2 20.7659 17.7504 52.9675
3317 2 25.6779 16.0137 51.3572
3339 2 28.7867 19.3202 51.4287
3326 2 8.09727 20.8468 52.9632
3347 2 9.52118 22.37 51.3531
3547 2 9.4693 22.3773 54.5555
3332 2 17.7196 20.7627 52.9583
3553 2 19.2477 22.4279 54.4377
3334 2 20.7984 20.919 52.9709
3355 2 22.3288 22.4052 51.3894
3555 2 22.3783 22.4533 54.5018
3336 2 23.9403 20.9936 52.9852
3338 2 27.2139 20.8831 52.973
3557 2 25.5654 22.4481 54.5634
3370 2 14.3351 27.2888 52.9482
3569 2 12.8624 25.7379 54.5463
3372 2 17.7338 27.2032 52.9215
3373 2 19.2292 25.67 51.3637
3573 2 19.2429 25.7505 54.4668
3354 2 20.7446 24.0739 52.9881
3374 2 20.7079 27.2364 52.9034
3376 2 24.0394 27.3235 52.9676
3579 2 28.896 25.7245 54.6353
3386 2 8.10134 30.5436 52.9811
3388 2 11.1413 30.5217 52.935
3389 2 12.7837 28.8362 51.3018
3393 2 19.2423 28.8479 51.3611
3394 2 20.832 30.5295 52.9723
3396 2 24.0389 30.5471 53.05
3597 2 25.5411 28.9297 54.5936
3599 2 28.854 28.9773 54.682
3448 2 11.1706 8.17007 56.2767
3474 2 20.8919 11.2237 56.1939
3675 2 22.3951 9.68391 57.7221
3458 2 27.3045 8.01835 56.2015
3486 2 8.04262 14.5304 56.162
3488 2 11.2536 14.4698 56.1331
3693 2 19.3265 12.8518 57.7448
3494 2 20.7524 14.4153 56.2421
3707 2 9.56129 15.8456 57.7039
3713 2 19.2512 16.0658 57.7761
3745 2 6.49624 22.4498 57.7448
3526 2 8.03262 20.8191 56.0925
3536 2 23.9781 20.9708 56.1578
3540 2 30.5164 20.8568 56.171
3566 2 7.97738 27.3245 56.1922
3570 2 14.3009 27.1827 56.2289
3769 2 12.7923 25.6532 57.7323
3771 2 16.0451 25.6287 57.779
3576 2 24.0455 27.3843 56.0903
3580 2 30.3385 27.3291 56.149
3586 2 8.00658 30.4614 56.2655
3588 2 11.1789 30.4497 56.2446
3787 2 9.54196 28.9163 57.6018
3590 2 14.2535 30.5306 56.1857
3789 2 12.8531 28.9138 57.6168
3592 2 17.7055 30.3977 56.1795
3793 2 19.2119 28.9195 57.7495
3598 2 27.3395 30.4272 56.2008
3799 2 28.833 28.9047 57.7557
7011 2 15.978 32.0351 48.1697
7013 2 19.3912 32.0293 48.121
7407 2 9.62671 32.0416 54.4873
7609 2 12.727 32.0591 57.6886
5160 2 30.4825 56.2488 17.5598
13281 2 32.0609 44.9043 19.1542
12921 2 32.0563 51.3468 12.9034
4431 2 16.1847 35.3987 6.49552
4435 2 22.4151 35.4372 6.50542
4432 2 17.5726 36.8788 7.99826
4434 2 20.8971 37.0043 7.98092
4436 2 24.0524 36.9909 8.00994
4457 2 25.5429 38.5397 6.4726
4465 2 6.42889 41.6851 6.45709
4448 2 11.1927 40.0574 8.04879
4450 2 14.5081 40.195 8.05444
4456 2 24.0841 40.0886 8.01739
4460 2 30.5272 40.0764 8.09593
4488 2 11.2374 46.6188 7.94875
4489 2 12.8414 45.1572 6.43489
4490 2 14.4065 46.676 7.9085
4492 2 17.6984 46.7315 7.96642
4496 2 23.9826 46.5391 8.09012
4498 2 27.2325 46.6343 8.0921
4508 2 11.1623 49.698 8.07784
4511 2 16.1362 48.1 6.48094
4555 2 22.5984 54.6177 6.51219
4536 2 24.1187 52.9798 7.98389
4557 2 25.6228 54.6192 6.45611
4540 2 30.4925 53.0377 8.10423
4546 2 7.87697 56.1615 7.97239
4556 2 24.1498 56.1509 7.92225
4606 2 8.09416 33.7287 11.3249
13061 2 32.083 41.8088 16.07
4612 2 17.7157 33.6152 11.2751
13041 2 32.0961 38.656 15.977
4631 2 16.1802 35.2842 9.64048
12841 2 32.0965 38.623 12.9674
4618 2 27.2371 33.6803 11.2137
4647 2 9.71636 38.5582 9.65484
4655 2 22.4828 38.4965 9.5357
4648 2 11.2173 40.1403 11.2641
4670 2 14.4161 43.3392 11.1486
4672 2 17.7063 43.4128 11.2907
4658 2 27.246 40.1361 11.3656
4678 2 27.2279 43.352 11.2456
4690 2 14.3568 46.6492 11.1432
4692 2 17.7713 46.6378 11.3094
4695 2 22.4924 45.0426 9.65786
4707 2 9.75699 48.1169 9.48565
4727 2 9.68882 51.3498 9.57623
4709 2 12.906 48.1472 9.50023
4710 2 14.4966 49.7851 11.2087
4713 2 19.1779 48.0983 9.62783
4735 2 22.4542 51.4577 9.69391
4717 2 25.7253 48.1893 9.61882
4718 2 27.2486 49.8705 11.2519
4737 2 25.6895 51.4246 9.65852
4739 2 28.8442 51.3982 9.68626
4745 2 6.46206 54.662 9.62553
4732 2 17.5677 53.0033 11.3896
4734 2 20.9296 52.9845 11.2394
4746 2 7.89424 56.0446 11.2482
4750 2 14.4956 56.1511 11.3861
4752 2 17.7059 56.076 11.3612
4760 2 30.6107 56.148 11.2192
4806 2 8.14863 33.731 14.3478
4807 2 9.60844 32.1938 12.9241
4808 2 11.3028 33.6761 14.5136
4827 2 9.5718 35.2905 12.9576
12741 2 32.0907 54.643 9.71026
5029 2 12.9027 35.214 16.075
4812 2 17.6634 33.5228 14.4611
4813 2 19.2479 32.1563 12.9092
12641 2 32.0573 38.5715 9.57289
5033 2 19.2458 35.0914 16.064
4814 2 20.8547 33.6245 14.536
5035 2 22.2913 35.3574 16.0707
4820 2 30.2839 33.6264 14.5598
5019 2 28.776 32.1044 16.1255
5039 2 28.8477 35.2844 16.0411
4845 2 6.44331 38.4206 12.9299
4826 2 8.08074 36.9591 14.384
5047 2 9.51954 38.476 16.005
4853 2 19.2707 38.5628 12.9019
5053 2 19.363 38.6438 16.1134
4836 2 23.9332 36.8263 14.5191
4859 2 28.8234 38.7037 12.9121
5059 2 28.8404 38.5993 16.0362
4846 2 8.07645 40.1679 14.5259
4848 2 11.1475 40.2385 14.5118
4867 2 9.69298 41.6467 12.8783
5067 2 9.61449 41.6537 15.9656
4850 2 14.4732 40.2743 14.4381
4870 2 14.4371 43.3458 14.4799
5069 2 12.9878 41.7149 16.0121
4872 2 17.7937 43.4602 14.5103
5073 2 19.3061 41.8259 15.9483
4854 2 20.8087 40.2078 14.5346
4874 2 20.8467 43.3476 14.487
4875 2 22.3386 41.7703 12.932
5075 2 22.3394 41.8755 16.0272
4858 2 27.3172 40.0761 14.4593
4877 2 25.7927 41.7412 12.826
4878 2 27.2246 43.286 14.437
4860 2 30.5021 40.059 14.4637
4885 2 6.54667 44.9918 12.9034
4886 2 7.83055 46.5508 14.5046
4893 2 19.1916 44.8525 12.8657
5093 2 19.309 44.8554 16.0082
4898 2 27.2587 46.7437 14.5389
4905 2 6.46437 48.14 12.8912
5109 2 12.8043 48.221 16.1946
4913 2 19.2032 48.1639 12.8434
4931 2 16.1085 51.3263 12.7426
4916 2 24.2109 49.7683 14.5038
4917 2 25.7213 48.2363 12.8883
4937 2 25.7072 51.3573 12.9078
5117 2 25.6776 48.2684 16.1262
5137 2 25.6453 51.3452 16.0975
4920 2 30.485 49.8496 14.4302
4939 2 28.8686 51.3866 12.92
5119 2 28.826 48.2433 15.9969
4928 2 11.1951 52.9948 14.4985
5147 2 9.58861 54.5603 16.0603
4951 2 16.0873 54.694 12.8209
4953 2 19.2918 54.5052 12.791
5153 2 19.2922 54.4436 16.0577
4934 2 20.8452 53.0587 14.5556
5155 2 22.4855 54.5131 16.0414
4938 2 27.2631 52.8774 14.4392
5157 2 25.7389 54.5144 16.0201
4948 2 11.228 56.2049 14.4682
4950 2 14.5417 56.2259 14.4266
4969 2 12.9745 57.7305 12.8664
5171 2 16.0404 57.7449 16.0781
5006 2 8.03629 33.7203 17.6871
5208 2 11.229 33.7497 20.8131
5010 2 14.4854 33.6118 17.5835
5210 2 14.5368 33.7048 20.8059
5012 2 17.6781 33.552 17.6556
5211 2 16.0232 32.1547 19.0764
5213 2 19.2783 32.1468 19.0141
5014 2 20.8921 33.7267 17.572
5235 2 22.3617 35.4104 19.1084
5018 2 27.3003 33.7469 17.5723
5218 2 27.2424 33.7547 20.8384
5239 2 28.7517 35.3507 19.1615
5026 2 8.00814 37.039 17.6183
5034 2 20.7768 36.8623 17.5346
5036 2 23.8226 36.7595 17.6361
5038 2 27.417 36.8708 17.5249
5268 2 11.2581 43.3202 20.8554
5050 2 14.3773 40.2291 17.6071
5070 2 14.4258 43.3386 17.6919
5250 2 14.4511 40.1885 20.8589
5270 2 14.4962 43.3946 20.8226
5052 2 17.8594 40.2653 17.5856
5252 2 17.7055 40.2543 20.8068
5273 2 19.2466 41.685 19.2599
5074 2 20.7839 43.3112 17.6107
5254 2 20.8601 40.1441 20.8658
5256 2 24.1144 40.0805 20.8913
5277 2 25.5505 41.6291 19.288
5080 2 30.5273 43.3342 17.6555
5280 2 30.5044 43.445 20.8958
5088 2 11.3486 46.5002 17.6471
5289 2 12.925 44.8361 19.2725
5292 2 17.6958 46.5103 20.9206
5293 2 19.2811 44.9812 19.3213
5294 2 20.7604 46.5077 20.8664
5297 2 25.6662 44.9833 19.2448
5106 2 8.0418 49.6738 17.6461
5108 2 11.3219 49.794 17.5703
5308 2 11.1872 49.6907 20.9535
5112 2 17.7545 49.7781 17.8268
5312 2 17.7165 49.7315 20.8821
5313 2 19.1985 48.1552 19.3641
5333 2 19.1978 51.2671 19.2512
5114 2 20.8488 49.8309 17.7511
5335 2 22.5439 51.2788 19.1571
5116 2 24.1289 49.7506 17.6761
5118 2 27.2265 49.6642 17.5857
5317 2 25.6934 48.293 19.2536
5318 2 27.2033 49.6569 20.8644
5319 2 28.797 48.2506 19.2949
5126 2 8.11083 52.9978 17.6221
5326 2 8.14319 52.9595 20.8863
5330 2 14.5125 53.0543 20.9347
5351 2 15.9296 54.6411 19.3324
5136 2 24.0921 52.9998 17.6169
5357 2 25.6052 54.5197 19.1385
5359 2 28.9796 54.7008 19.0558
5365 2 6.55807 57.7792 19.1475
5146 2 8.04684 56.223 17.6817
5150 2 14.506 56.1947 17.6844
5350 2 14.5143 56.179 20.9293
5408 2 11.3522 33.6944 24.1971
5410 2 14.4695 33.814 24.1283
5431 2 15.9136 35.2542 22.3954
5433 2 19.3357 35.4289 22.4975
14671 2 32.0712 54.42 41.7171
5439 2 28.7664 35.2885 22.4181
5428 2 11.3409 36.9674 24.1745
5434 2 20.8625 36.9748 23.9487
5455 2 22.4468 38.6556 22.4017
5457 2 25.6243 38.6576 22.4858
5448 2 11.2587 40.1557 24.0608
5467 2 9.75012 41.7327 22.4603
5450 2 14.5136 40.0752 24.1639
5470 2 14.4065 43.4231 24.1394
5472 2 17.7711 43.3866 24.1372
5456 2 24.109 40.1361 23.9307
5458 2 27.1102 40.2071 24.0086
5476 2 24.0342 43.4028 24.0765
5477 2 25.5188 41.6769 22.4943
5460 2 30.499 40.1657 24.0643
5488 2 11.2655 46.619 24.1795
5493 2 19.2235 45.0137 22.4292
5495 2 22.4372 44.9745 22.4431
5499 2 28.8471 44.9033 22.3849
5507 2 9.69334 48.143 22.5069
5511 2 16.192 48.2118 22.4547
5512 2 17.5635 49.6914 24.1944
5514 2 20.9222 49.7186 24.1865
5517 2 25.6885 48.1909 22.4433
5528 2 11.3246 52.8895 24.171
5551 2 15.9067 54.6005 22.4539
5555 2 22.5591 54.4704 22.5257
5536 2 24.094 52.9136 24.179
5538 2 27.2421 53.0435 24.2176
5540 2 30.4123 53.0524 24.1021
5559 2 28.8289 54.4933 22.5966
5548 2 11.1515 56.2202 24.1292
5550 2 14.5692 56.0543 24.1441
14521 2 32.0295 51.4003 38.5918
5625 2 6.43107 35.3704 25.6373
14611 2 32.0646 35.2892 41.702
5825 2 6.55097 35.3361 28.9646
5608 2 11.2567 33.7205 27.2768
5807 2 9.67471 32.1225 28.8215
5827 2 9.60336 35.3671 28.833
5609 2 12.8443 32.124 25.6456
5629 2 12.769 35.3173 25.6281
14401 2 32.099 32.1202 38.5714
5631 2 16.0251 35.2491 25.6387
5811 2 15.9814 32.1794 28.873
5813 2 19.2158 32.1203 28.9897
5637 2 25.7248 35.3603 25.6868
14341 2 32.0999 54.4565 35.4272
14301 2 32.1013 48.144 35.2251
5839 2 28.8284 35.3416 28.902
5626 2 7.97355 36.8422 27.3183
5628 2 11.2797 36.9132 27.2399
5649 2 12.7495 38.602 25.6426
5651 2 16.0867 38.6608 25.6486
5853 2 19.2322 38.6332 28.8844
5638 2 27.2271 36.8737 27.2732
5648 2 11.3424 40.1487 27.256
5670 2 14.3617 43.3798 27.3339
5869 2 12.8741 41.7261 28.887
5652 2 17.689 40.1734 27.195
5673 2 19.2616 41.8002 25.6596
5674 2 20.8503 43.3966 27.2001
5875 2 22.357 41.7753 28.964
5677 2 25.5322 41.758 25.5064
5678 2 27.0545 43.2187 27.1575
5660 2 30.4047 40.126 27.3165
5680 2 30.5441 43.3483 27.3393
5887 2 9.67769 45.0251 28.9705
5689 2 12.9176 44.931 25.7095
5690 2 14.3644 46.5451 27.2456
5889 2 12.9383 44.9883 28.8472
5692 2 17.6452 46.5513 27.1742
5693 2 19.2768 45.011 25.7159
5694 2 20.9099 46.4642 27.1988
5695 2 22.4051 44.8922 25.6831
5895 2 22.2999 44.8962 28.7816
5697 2 25.6373 44.8549 25.703
5706 2 8.14127 49.6415 27.3783
5707 2 9.65129 48.1005 25.7227
5927 2 9.66002 51.3776 28.8499
5709 2 12.8647 48.0594 25.7283
5729 2 12.7398 51.4531 25.717
5711 2 16.1122 48.1002 25.748
5731 2 16.0977 51.2833 25.5802
5733 2 19.2608 51.1567 25.6081
5933 2 19.2426 51.2848 28.9529
5714 2 20.7964 49.8315 27.223
5715 2 22.3474 48.1951 25.7333
5735 2 22.4766 51.2649 25.7587
5716 2 24.0948 49.8382 27.1675
5717 2 25.556 48.204 25.7135
5737 2 25.6481 51.4223 25.6174
5937 2 25.5909 51.3516 28.9211
5719 2 28.8892 48.1643 25.6472
5939 2 28.948 51.273 28.9924
5726 2 8.05138 52.9825 27.4163
5728 2 11.2999 52.8827 27.3192
5751 2 15.9657 54.6396 25.7467
5757 2 25.7219 54.4877 25.6659
5957 2 25.6739 54.5805 28.9874
5759 2 28.8765 54.5258 25.7489
5959 2 28.9499 54.7131 28.902
5967 2 9.70135 57.7592 28.9436
5750 2 14.4998 56.1862 27.2957
5971 2 15.8356 57.7668 28.9546
5973 2 19.367 57.7144 28.9511
5758 2 27.3344 55.9701 27.3507
5760 2 30.3965 56.072 27.2903
14141 2 32.0553 54.6768 32.0243
5806 2 8.12066 33.7552 30.3905
6008 2 11.2631 33.6909 33.6857
6009 2 12.8856 32.1429 32.1776
6010 2 14.4446 33.6509 33.7293
5812 2 17.6376 33.6413 30.4289
6033 2 19.2374 35.3169 32.2073
6014 2 20.7452 33.7235 33.6581
14001 2 32.0653 32.1419 32.153
6016 2 24.037 33.728 33.64
6018 2 27.2917 33.7003 33.7317
6037 2 25.6293 35.2638 32.1518
6020 2 30.5703 33.6056 33.7646
5826 2 8.04691 36.8962 30.3943
6032 2 17.7187 36.873 33.7324
6034 2 20.7446 36.8654 33.7197
5836 2 24.0896 36.9479 30.5749
6057 2 25.6022 38.5754 32.0289
5848 2 11.2396 40.2226 30.4026
5850 2 14.4778 40.2474 30.4672
6070 2 14.4261 43.3931 33.7034
5852 2 17.6632 40.1946 30.4801
6071 2 16.0277 41.703 32.0653
6072 2 17.5937 43.3527 33.6698
5854 2 20.8298 40.1574 30.3974
5874 2 20.9111 43.3933 30.3825
6054 2 20.7669 40.1449 33.7451
5856 2 24.0383 40.1569 30.4961
5858 2 27.2341 40.0997 30.5422
6058 2 27.1905 40.0932 33.724
6078 2 27.2922 43.468 33.7191
5888 2 11.3382 46.4597 30.5248
6086 2 8.13832 46.5773 33.7978
6089 2 12.8583 44.9444 32.132
5892 2 17.5851 46.5515 30.5372
6096 2 24.1731 46.5398 33.5946
6097 2 25.656 44.9923 32.1584
6100 2 30.5504 46.5113 33.8421
5908 2 11.2903 49.8081 30.5602
6108 2 11.3511 49.6948 33.736
5910 2 14.388 49.665 30.6275
6109 2 12.795 48.1899 32.0416
6129 2 12.7989 51.1582 32.1022
5912 2 17.7276 49.7126 30.4579
6111 2 16.1169 48.2034 31.9248
6114 2 20.8791 49.7733 33.766
6116 2 24.0491 49.8487 33.7174
6117 2 25.5632 48.1808 32.196
5920 2 30.4572 49.8226 30.5177
6126 2 8.10487 53.0249 33.7663
6147 2 9.59733 54.5147 32.2052
6132 2 17.6885 53.0396 33.7025
6151 2 16.0015 54.5818 32.1678
5934 2 20.794 52.8196 30.4717
6134 2 20.9046 52.9937 33.7831
5936 2 24.17 52.9476 30.3688
6136 2 24.0009 53.0011 33.81
5950 2 14.5302 56.1469 30.5136
6150 2 14.5605 56.1623 33.6618
6173 2 19.3062 57.6914 32.1332
5954 2 20.7461 56.2533 30.503
6154 2 20.8196 56.1623 33.748
5956 2 24.1689 56.1268 30.4646
5960 2 30.4621 56.2196 30.5673
6179 2 28.9887 57.7424 32.1593
13721 2 32.0334 51.5046 25.566
6233 2 19.2856 35.33 35.264
6214 2 20.8349 33.7763 36.9119
6219 2 28.8987 32.1147 35.2112
6228 2 11.2261 36.9816 37.0896
6247 2 9.77921 38.5157 35.531
6230 2 14.359 36.9198 37.0224
6253 2 19.3029 38.5532 35.255
6248 2 11.2689 40.0458 37.0871
6266 2 8.00801 43.2347 36.9121
6268 2 11.3574 43.3933 37.1071
6272 2 17.5203 43.3681 36.9354
6254 2 20.8592 40.0914 36.9686
6278 2 27.3529 43.4411 36.8888
6286 2 8.1376 46.6189 36.9652
6288 2 11.2814 46.563 37.0207
6290 2 14.45 46.5399 36.9796
6291 2 16.0692 44.9456 35.4113
6292 2 17.5799 46.5477 36.8642
6299 2 28.837 44.9024 35.3221
6307 2 9.74693 48.1157 35.388
6308 2 11.3523 49.7346 36.9286
6329 2 12.7471 51.1353 35.3139
6311 2 16.0035 48.008 35.529
6335 2 22.5052 51.356 35.1917
6345 2 6.47782 54.5023 35.3349
6326 2 8.02117 52.9398 36.9316
6347 2 9.50051 54.4131 35.3759
6353 2 19.3402 54.5222 35.2324
6355 2 22.4379 54.518 35.1766
6338 2 27.3783 52.9664 36.9646
6340 2 30.5313 52.9254 36.8846
6359 2 28.9233 54.4442 35.3919
6346 2 8.08815 56.0998 36.7925
6367 2 9.59434 57.6989 35.317
6350 2 14.5682 56.1572 37.0128
6408 2 11.2634 33.702 40.2278
6614 2 9.71367 35.1005 41.8175
13481 2 32.0107 44.9318 22.4552
6410 2 14.4452 33.5645 40.1514
6429 2 12.859 35.3446 38.5867
6606 2 15.9842 32.1145 41.7395
6414 2 20.9784 33.7326 40.1119
6435 2 22.3714 35.3175 38.5774
6554 2 20.9108 56.1012 40.0976
6420 2 30.589 33.6995 40.1742
6447 2 9.66624 38.6185 38.6118
6624 2 9.71173 38.7592 41.7179
6430 2 14.319 36.924 40.0637
6449 2 12.8204 38.5069 38.5407
6434 2 20.9302 36.9607 40.0353
6455 2 22.4667 38.5227 38.6067
6436 2 23.9514 36.9118 40.0601
6438 2 27.404 37.0501 40.0965
6459 2 28.8984 38.597 38.6803
6633 2 6.43762 41.7338 41.7512
6446 2 8.04835 40.0933 40.2875
6448 2 11.2731 40.1246 40.1244
6466 2 7.93172 43.351 40.2525
6450 2 14.311 40.1963 40.0904
6469 2 12.7868 41.6515 38.5645
6470 2 14.3724 43.315 40.1189
6635 2 12.8347 41.7126 41.6877
6452 2 17.6535 40.127 40.1144
6475 2 22.4641 41.6702 38.5415
6456 2 24.0647 40.2541 40.0808
6639 2 25.5433 41.6589 41.8339
6460 2 30.5794 40.1435 40.0975
6640 2 29.0085 41.7022 41.7852
6643 2 6.51884 44.9244 41.7699
6489 2 12.8526 44.9797 38.4898
6492 2 17.5649 46.4071 40.2529
6646 2 16.0716 44.9202 41.7478
6495 2 22.5798 45.0266 38.5464
6648 2 22.608 45.054 41.8454
6496 2 23.9697 46.54 40.0538
6498 2 27.2942 46.6596 40.1723
6556 2 24.101 56.1149 40.0563
6525 2 6.42769 51.3415 38.4696
6508 2 11.3693 49.6611 40.1418
6654 2 9.65221 48.201 41.7232
6509 2 12.7992 48.1173 38.4172
6529 2 12.808 51.2322 38.5802
6655 2 12.8718 48.1879 41.7201
6512 2 17.745 49.8311 40.142
6533 2 19.3231 51.2738 38.6477
6514 2 20.9464 49.6909 40.1193
6515 2 22.539 48.2391 38.6519
6668 2 22.5295 51.2478 41.7183
6516 2 24.1552 49.7666 40.1456
6517 2 25.6552 48.1156 38.6867
6537 2 25.7657 51.4269 38.5215
6669 2 25.6551 51.3772 41.7126
6520 2 30.575 49.6344 40.1291
6660 2 28.9008 48.1557 41.6106
6530 2 14.4036 52.9796 40.0569
6549 2 13.0063 54.6524 38.4323
6676 2 16.0506 54.4732 41.7951
6555 2 22.4576 54.6454 38.6983
6538 2 27.2917 52.9143 40.1096
6540 2 30.5093 53.0501 40.1308
6559 2 28.9678 54.3796 38.5035
6680 2 28.9112 54.4033 41.6447
6571 2 16.0648 57.7719 38.4747
6805 2 6.51119 32.2064 44.9497
6703 2 8.11266 33.6069 43.3599
6704 2 11.2453 33.5644 43.3445
6806 2 8.07917 33.6913 46.5247
6807 2 9.66537 32.1378 44.8731
6705 2 14.4281 33.5579 43.3093
6809 2 12.7839 32.1574 44.8123
6833 2 19.2359 35.2834 45.0559
6814 2 20.7524 33.8421 46.6373
6835 2 22.4079 35.2969 45.0255
6709 2 27.2853 33.7656 43.3064
6839 2 28.9223 35.4 44.9542
6832 2 17.6991 36.8044 46.6467
6717 2 20.8894 36.8602 43.4547
6840 2 30.4778 36.9978 46.5637
6859 2 28.9733 38.5964 44.9322
6724 2 11.3252 40.2091 43.3052
6733 2 7.94796 43.2614 43.1906
6734 2 11.4011 43.1711 43.3347
6866 2 8.03779 43.3769 46.6436
6850 2 14.4439 40.1714 46.4625
6869 2 12.8607 41.7425 44.9603
6870 2 14.4248 43.3229 46.5601
6726 2 17.6383 40.1005 43.3983
6736 2 17.6861 43.4621 43.3349
6874 2 20.8681 43.5108 46.5611
6728 2 24.0707 40.1934 43.3102
6729 2 27.3131 40.2723 43.2468
6738 2 24.0293 43.4826 43.3052
6740 2 30.4734 43.2354 43.3034
6743 2 8.09668 46.564 43.2109
6893 2 19.3421 44.9391 44.8691
6747 2 20.9833 46.4523 43.4591
6895 2 22.5132 44.9909 44.8808
6748 2 23.9936 46.5883 43.465
6898 2 27.3688 46.7152 46.6065
6925 2 6.42917 51.4983 45.0432
6927 2 9.7307 51.5073 45.0064
6911 2 16.1303 48.1761 45.0018
6912 2 17.6187 49.6957 46.5135
6933 2 19.4063 51.1512 44.9318
6757 2 20.9706 49.7364 43.4051
6914 2 20.9887 49.7714 46.4618
6915 2 22.454 48.1523 44.9118
6916 2 24.1626 49.7658 46.6137
6918 2 27.355 49.7671 46.6072
6919 2 28.812 48.2407 45.0849
6920 2 30.4147 49.7738 46.5357
6939 2 28.8296 51.2813 45.0563
6764 2 11.2638 52.9797 43.4835
6926 2 8.12457 52.8898 46.5704
6928 2 11.1815 52.9114 46.6287
6765 2 14.492 53.0165 43.3609
6949 2 12.7787 54.4502 44.9829
6953 2 19.2414 54.5757 44.8533
6955 2 22.669 54.445 44.9311
6768 2 24.1629 52.9179 43.3111
6936 2 24.156 52.9046 46.5112
6938 2 27.3656 52.8367 46.4694
6957 2 25.7507 54.4542 44.9759
6959 2 28.8453 54.4746 45.0003
6948 2 11.2313 56.0831 46.5485
6776 2 17.7166 56.1642 43.3858
6971 2 16.1253 57.7502 44.9771
6973 2 19.2506 57.7769 44.8954
6975 2 22.5931 57.6465 44.9932
6956 2 24.1391 56.0256 46.3886
6958 2 27.3912 56.0566 46.3542
6979 2 28.9454 57.6776 44.9133
7025 2 6.52857 35.2618 48.1401
7008 2 11.1801 33.7913 49.7196
7027 2 9.6611 35.3084 48.2081
7029 2 12.767 35.3298 48.3092
15741 2 32.0598 54.6124 57.5723
7031 2 16.1019 35.4326 48.1417
7033 2 19.31 35.3594 48.1491
7018 2 27.3073 33.7195 49.8848
7019 2 28.8185 32.1585 48.163
7026 2 8.03748 36.8282 49.6911
7028 2 11.2453 36.8331 49.7033
7030 2 14.5048 36.8455 49.6943
7034 2 20.7936 36.8662 49.8755
7055 2 22.4534 38.6021 48.296
7038 2 27.2833 36.9067 49.8591
7068 2 11.2789 43.3502 49.8419
7050 2 14.5048 40.083 49.8359
7072 2 17.7082 43.2997 49.7388
7054 2 20.8493 40.1383 49.8063
7074 2 20.8464 43.3595 49.7292
7056 2 24.0812 40.1954 49.7829
7076 2 24.2037 43.3455 49.8188
7077 2 25.5791 41.7889 48.2497
7060 2 30.6075 40.1213 49.7754
7080 2 30.5482 43.3471 49.729
7085 2 6.50229 44.9567 48.1422
7086 2 7.94242 46.5296 49.8265
7088 2 11.331 46.5732 49.8608
7090 2 14.4139 46.5433 49.7778
7092 2 17.7626 46.608 49.6788
7093 2 19.2905 44.8888 48.2087
7095 2 22.4546 44.8559 48.2141
7100 2 30.4934 46.6154 49.6655
7106 2 8.01839 49.8032 49.7985
7108 2 11.2815 49.8069 49.7899
7127 2 9.59632 51.3678 48.2238
7111 2 16.1462 48.0756 48.1463
7131 2 16.0717 51.3044 48.1101
7135 2 22.6538 51.303 48.0594
7116 2 24.1329 49.82 49.6897
7117 2 25.6934 48.2388 48.0329
7137 2 25.6747 51.3446 48.0337
7119 2 28.8797 48.2002 48.0887
7139 2 28.9023 51.3549 48.0326
7126 2 8.14434 52.8994 49.7352
7147 2 9.61693 54.4607 48.0668
7130 2 14.4828 52.8757 49.7311
7151 2 15.9917 54.5625 48.2104
7136 2 24.1654 52.7731 49.704
7140 2 30.4307 53.0126 49.7163
7165 2 6.52666 57.7759 48.1646
7146 2 8.03342 56.1033 49.7391
7150 2 14.4582 56.0545 49.6778
15701 2 32.0633 48.2341 57.7199
15681 2 32.0755 44.8636 57.754
7425 2 6.46456 35.291 54.5779
7206 2 8.11345 33.6256 53.0256
7207 2 9.65974 32.1044 51.4815
7208 2 11.1715 33.6537 53.0107
15541 2 32.0423 54.6202 54.5253
7429 2 12.7402 35.3298 54.6102
7233 2 19.1964 35.4076 51.3732
15501 2 32.0342 48.2549 54.5443
7431 2 16.0543 35.3932 54.5647
7433 2 19.2493 35.4215 54.5137
7235 2 22.4344 35.3529 51.3404
7415 2 22.4981 32.1355 54.4992
7216 2 24.064 33.7311 52.9476
7217 2 25.5993 32.1502 51.4169
7237 2 25.7045 35.3618 51.3906
7219 2 28.8052 32.1875 51.3676
7239 2 28.7577 35.3863 51.2923
7439 2 28.7955 35.3854 54.5628
7226 2 7.97904 36.8666 53.0558
7449 2 12.9061 38.4469 54.6496
7232 2 17.7424 36.9007 52.9108
7251 2 16.0231 38.5015 51.3357
7253 2 19.3537 38.5173 51.4199
7455 2 22.4529 38.6635 54.5214
7238 2 27.2713 36.8789 52.975
7457 2 25.5891 38.6035 54.5687
7266 2 8.14679 43.3449 53.0141
7267 2 9.68463 41.8402 51.3989
7467 2 9.4918 41.7995 54.629
7273 2 19.3532 41.7339 51.3626
7471 2 16.0291 41.7991 54.6269
7254 2 20.8193 40.1075 52.9569
7274 2 20.835 43.3047 52.9194
7256 2 24.1208 40.1577 53.0539
7277 2 25.5885 41.7499 51.39
7278 2 27.1749 43.396 52.9301
7477 2 25.5855 41.7042 54.5637
7280 2 30.4856 43.3423 52.9769
7285 2 6.58571 45.0303 51.4485
7286 2 8.03551 46.5203 52.9442
7487 2 9.56709 44.9465 54.519
7289 2 12.7794 44.9575 51.2127
7489 2 12.8361 44.9536 54.6677
7297 2 25.756 44.9696 51.4062
7298 2 27.2654 46.5377 53.0073
7499 2 28.8026 44.9024 54.4404
7305 2 6.63593 48.1648 51.3862
7325 2 6.64062 51.3428 51.3946
7306 2 7.99413 49.7046 52.9085
7309 2 12.8024 48.1075 51.2696
7329 2 12.8012 51.3471 51.204
7529 2 12.769 51.428 54.5676
7313 2 19.2768 48.108 51.2668
7331 2 16.0452 51.3489 51.2959
7511 2 16.0122 48.1677 54.5375
7335 2 22.5999 51.3131 51.2371
7515 2 22.482 48.0453 54.6274
7318 2 27.2817 49.8453 52.9468
7337 2 25.6672 51.3283 51.2804
7517 2 25.7728 48.1554 54.5757
7320 2 30.4802 49.7617 53.0138
7539 2 28.9525 51.2636 54.5392
7545 2 6.49782 54.4623 54.6046
7326 2 8.04203 53.0118 52.9412
7347 2 9.43802 54.4617 51.2855
7547 2 9.59365 54.4573 54.5956
7349 2 12.9704 54.5315 51.2349
7340 2 30.4582 52.9958 52.9441
7359 2 29.0415 54.4584 51.3715
7365 2 6.57083 57.6997 51.2416
7352 2 17.7124 56.1888 52.8314
7373 2 19.234 57.7092 51.3693
7358 2 27.3476 56.0472 52.8715
7360 2 30.5485 56.0287 52.8941
15461 2 32.0568 41.7518 54.5291
15261 2 32.0248 41.7697 51.3423
15101 2 32.0093 48.1436 48.1539
7615 2 22.475 32.2291 57.7364
7416 2 23.9807 33.624 56.1907
15081 2 31.976 44.9437 48.291
7428 2 11.3228 36.9357 56.1049
7430 2 14.3817 36.9426 56.1407
7649 2 12.8621 38.5402 57.7299
7446 2 8.08674 40.1525 56.1211
7466 2 8.10426 43.3855 56.1289
7470 2 14.5153 43.2571 56.1859
7472 2 17.6086 43.2606 56.1906
7456 2 24.0249 40.1491 56.1331
7488 2 11.1925 46.4333 56.1471
7687 2 9.64898 44.8826 57.7405
7494 2 20.9813 46.5208 56.2284
7695 2 22.4415 45.0743 57.7504
7496 2 23.9997 46.6546 56.1611
7707 2 9.62846 48.0649 57.759
7727 2 9.62641 51.4999 57.6337
7518 2 27.2633 49.7754 56.1397
7520 2 30.5303 49.7421 56.1021
7526 2 8.035 52.9882 56.1555
7528 2 11.2011 52.9348 56.2302
7747 2 9.56481 54.5682 57.7074
7751 2 16.0328 54.5122 57.7252
7753 2 19.3384 54.551 57.7227
7534 2 20.8473 52.9679 56.1918
7540 2 30.486 53.0212 56.1399
7759 2 28.9037 54.5001 57.7711
7546 2 8.09245 55.961 56.0818
7552 2 17.6637 56.0987 56.3566
7773 2 19.2217 57.724 57.7534
7554 2 20.7639 56.1857 56.3164
7560 2 30.518 56.0337 56.2162
15041 2 32.0175 38.6012 48.0742
15021 2 32.0416 35.3661 48.1308
14921 2 32.0489 51.3194 44.92
13011 2 48.0849 32.0653 16.0587
12809 2 44.9078 32.0503 12.9134
12805 2 38.6397 32.0588 12.8351
12803 2 35.3475 32.0937 12.7728
12615 2 54.6136 32.0566 9.42561
12609 2 44.9356 31.9639 9.50125
12403 2 35.3112 32.094 6.43891
9156 2 56.1227 23.9459 17.7139
9372 2 49.7929 27.204 20.996
8451 2 48.1938 6.45779 6.43143
8442 2 33.6567 7.96917 8.05717
8464 2 37.1027 11.2719 8.07193
8466 2 40.0788 11.2917 8.08098
8456 2 56.3008 8.033 8.04336
8476 2 56.2449 11.2825 7.94326
8477 2 57.7777 9.5194 6.50531
8485 2 38.681 12.7828 6.49821
8486 2 40.0684 14.3592 7.97224
8488 2 43.3901 14.3707 8.02312
8496 2 56.1793 14.3662 7.98535
8497 2 57.6812 12.9353 6.4355
9196 2 56.1673 30.5278 17.6976
8508 2 43.2794 17.7181 8.08848
8514 2 52.9486 17.6877 7.88908
8516 2 56.2673 17.6105 7.97301
9395 2 54.6371 28.899 19.2273
8526 2 40.0985 20.8324 8.06631
8530 2 46.5361 20.8734 7.97412
8532 2 49.8316 20.8616 7.93142
8551 2 48.1721 22.3193 6.46783
8536 2 56.1992 20.8606 7.9515
8561 2 32.1328 25.6844 6.42487
8562 2 33.6452 27.2083 7.97164
8564 2 37.028 27.2027 8.099
8565 2 38.5203 25.7307 6.42232
8548 2 43.4606 24.1051 8.00362
8566 2 40.1013 27.2606 8.05082
8568 2 43.4375 27.2486 7.92065
8569 2 44.9452 25.675 6.49887
8570 2 46.5058 27.2613 7.96435
8581 2 32.1221 28.9144 6.44605
8587 2 41.8231 28.8509 6.44903
8588 2 43.365 30.4441 7.87965
8589 2 44.9553 28.8807 6.45357
8590 2 46.4553 30.4455 7.9896
8592 2 49.7199 30.4425 7.97142
8596 2 56.2614 30.5717 7.9894
9394 2 53.0211 30.4724 20.8294
8665 2 38.603 9.74713 9.4947
8668 2 43.3776 11.271 11.1649
8650 2 46.5229 8.04864 11.2586
8669 2 45.0072 9.65752 9.72813
8670 2 46.5085 11.2169 11.1978
8674 2 53.0912 11.2026 11.1978
8676 2 56.2107 11.1585 11.1169
8677 2 57.6817 9.60579 9.46999
8682 2 33.8083 14.4317 11.3077
8684 2 36.8699 14.4598 11.2592
8685 2 38.6005 12.9085 9.62893
8686 2 40.2977 14.3981 11.361
8689 2 44.9081 12.8234 9.65018
8692 2 49.8498 14.5549 11.2025
8695 2 54.7138 12.7173 9.57731
8702 2 33.7753 17.6541 11.3758
8725 2 38.5535 19.3759 9.62533
8713 2 51.4866 16.117 9.5394
8731 2 48.0803 19.3342 9.48724
8714 2 52.9433 17.5298 11.1801
8717 2 57.731 16.0374 9.47434
8737 2 57.7266 19.169 9.41284
8743 2 35.3262 22.4515 9.6448
8724 2 36.9562 20.8956 11.239
8728 2 43.3282 20.7993 11.2621
8730 2 46.488 20.8094 11.1722
8749 2 44.9384 22.4589 9.59589
8753 2 51.286 22.3266 9.47338
8755 2 54.6276 22.3555 9.50089
8742 2 33.9066 23.9942 11.1472
8762 2 33.7951 27.3132 11.2093
8763 2 35.2263 25.787 9.5818
8765 2 38.5655 25.7383 9.53453
8748 2 43.3984 24.0829 11.0761
8768 2 43.387 27.3269 11.2257
8769 2 44.8927 25.698 9.54577
8772 2 49.6566 27.3279 11.1613
8785 2 38.5846 28.8417 9.58638
8786 2 40.0456 30.3964 11.1667
8791 2 48.1078 28.8976 9.52213
8792 2 49.6712 30.3742 11.1766
9356 2 56.138 23.9716 20.9549
9176 2 56.1995 27.3093 17.6553
9391 2 48.1161 28.9222 19.2733
9053 2 51.3614 6.43957 16.054
8865 2 38.6097 9.61702 12.9039
8846 2 40.033 8.02185 14.2824
8868 2 43.2102 11.3682 14.4427
8871 2 47.9956 9.62686 12.7295
9073 2 51.3853 9.51911 16.1322
8854 2 52.977 7.97317 14.4217
8875 2 54.6559 9.60958 12.8883
8856 2 56.1336 7.92881 14.2606
8876 2 56.0398 11.1851 14.4166
8883 2 35.3448 12.9394 12.7599
8887 2 41.7705 12.8098 12.7705
9087 2 41.6919 12.8418 16.0585
8903 2 35.3321 16.0516 12.7385
8921 2 32.1329 19.1955 12.6766
9190 2 46.602 30.4148 17.5856
8925 2 38.5284 19.2492 12.8814
9105 2 38.5872 15.9986 16.0938
9125 2 38.5252 19.2869 15.9777
8906 2 40.1362 17.6581 14.4679
8907 2 41.5712 16.0392 12.8425
8927 2 41.7583 19.3127 12.8652
9107 2 41.6484 16.1029 16.1128
8909 2 44.8968 16.0277 12.8503
8929 2 44.8673 19.3156 12.7753
8913 2 51.3456 16.0419 12.7236
9113 2 51.3418 16.0789 16.148
9131 2 48.0315 19.2134 16.1334
8915 2 54.5323 16.0629 12.695
8937 2 57.7571 19.2548 12.7808
9137 2 57.7191 19.241 15.9537
8943 2 35.3597 22.4312 12.8108
8924 2 37.0214 20.85 14.3247
8945 2 38.4277 22.3719 12.817
8928 2 43.3165 20.7285 14.3174
8936 2 56.2916 20.7351 14.3395
8957 2 57.7112 22.4309 12.8375
9163 2 35.2639 25.6522 16.0562
8965 2 38.5628 25.6902 12.8285
9165 2 38.5665 25.7005 15.9796
8948 2 43.3528 24.0658 14.4272
8966 2 40.0429 27.1896 14.3846
8952 2 49.7209 24.0002 14.3631
8956 2 56.2447 24.0501 14.335
8983 2 35.3354 28.8268 12.7952
8986 2 39.9631 30.6001 14.4618
8988 2 43.4663 30.429 14.3493
8989 2 44.8892 28.8267 12.7663
9189 2 44.9593 28.9405 16.0212
8991 2 48.2096 28.8876 12.6736
9197 2 57.7012 28.8723 16.1331
9245 2 38.5088 6.4881 19.2505
9062 2 33.7273 11.1647 17.6833
9262 2 33.7802 11.1285 20.8673
9263 2 35.274 9.64107 19.2941
9244 2 36.8266 8.08728 20.8656
9266 2 40.159 11.2827 20.7462
9267 2 41.6935 9.70496 19.3786
9268 2 43.257 11.2113 20.8228
9070 2 46.5065 11.1753 17.6361
9052 2 49.899 7.94151 17.6314
9072 2 49.7614 11.0873 17.6415
9252 2 49.8227 8.04156 20.8253
9273 2 51.3076 9.55888 19.1382
9054 2 52.7748 7.96194 17.6069
9074 2 52.8622 11.0782 17.6142
9084 2 37.0126 14.4781 17.729
9285 2 38.5507 12.8953 19.1997
9086 2 40.1684 14.446 17.6298
9287 2 41.7465 12.8151 19.365
9288 2 43.2644 14.3582 20.8107
9296 2 56.0797 14.4391 20.7961
9303 2 35.5354 16.0491 19.2424
9323 2 35.4372 19.2045 19.2868
9304 2 36.9131 17.5959 20.8179
9325 2 38.5443 19.1509 19.3501
9108 2 43.2375 17.5414 17.5839
9306 2 40.1593 17.6772 20.8691
9308 2 43.3395 17.7699 21.028
9110 2 46.5756 17.6164 17.6954
9310 2 46.5049 17.6783 20.9308
9311 2 47.9956 16.159 19.3235
9333 2 51.3675 19.2499 19.243
9114 2 52.9387 17.6089 17.711
9315 2 54.4669 16.0284 19.2602
9124 2 36.94 20.7379 17.7255
9128 2 43.2677 20.8647 17.758
9347 2 41.8349 22.3836 19.1734
9130 2 46.5908 20.7907 17.6155
9330 2 46.475 20.7425 21.0357
9332 2 49.5759 20.8127 21.0231
9355 2 54.7396 22.4675 19.3893
9336 2 56.0817 20.938 20.9397
9142 2 33.6844 24.1038 17.6168
9361 2 32.1051 25.6307 19.203
9164 2 36.9141 27.1194 17.4949
9344 2 36.9478 24.0639 20.8577
9148 2 43.3012 24.0064 17.7331
9366 2 40.1329 27.2123 20.8136
9367 2 41.7637 25.6287 19.2178
9350 2 46.5765 24.0571 21.0164
9447 2 41.6619 6.45399 22.6108
9463 2 35.3451 9.59213 22.4066
9448 2 43.2586 8.00283 24.0629
9468 2 43.2361 11.2926 24.1766
9450 2 46.5661 7.97989 24.0752
9470 2 46.5183 11.2726 24.0338
9472 2 49.7259 11.269 23.9672
9473 2 51.2375 9.58637 22.4738
9456 2 56.0759 7.99863 24.1283
9486 2 40.1227 14.3779 24.1555
9488 2 43.3378 14.4348 24.1909
9491 2 48.0621 12.6647 22.5738
9493 2 51.2641 12.7664 22.5259
9502 2 33.8254 17.5599 24.1343
9503 2 35.3508 16.0598 22.4802
9506 2 40.1979 17.6144 24.0941
9527 2 41.6694 19.0666 22.3972
9510 2 46.452 17.5662 24.0999
9529 2 45.0166 19.1264 22.422
9531 2 48.1001 19.274 22.465
9532 2 49.5847 20.8548 24.1202
9551 2 48.1163 22.4343 22.5406
9534 2 52.9905 20.776 24.1362
9555 2 54.5688 22.3926 22.5063
9557 2 57.7019 22.4342 22.3137
10698 2 54.4871 28.869 41.778
9562 2 33.752 27.2766 24.0931
9544 2 36.8909 24.0028 24.203
9546 2 40.1744 24.1099 24.1337
9550 2 46.5947 24.0224 24.0397
9569 2 45.075 25.6055 22.5324
9570 2 46.5578 27.232 24.0721
9552 2 49.6501 24.072 24.0701
9571 2 48.0823 25.5718 22.6064
9573 2 51.3365 25.6608 22.5313
9574 2 52.936 27.086 24.1037
9576 2 56.1255 27.3709 24.2107
9584 2 36.922 30.3925 24.1778
9594 2 52.9922 30.5178 24.2061
10595 2 54.4811 28.8719 38.5991
9655 2 54.5376 6.47925 25.6665
9662 2 33.7707 11.1893 27.2964
9863 2 35.4453 9.64952 28.987
9665 2 38.5745 9.70282 25.8406
9666 2 40.1329 11.2931 27.3928
9867 2 41.6853 9.61881 28.9257
9869 2 44.8934 9.53588 29.0359
9652 2 49.6612 8.05818 27.2906
9654 2 52.9879 8.01239 27.185
9675 2 54.4979 9.54254 25.6728
9681 2 32.22 12.7748 25.7313
9684 2 37.0452 14.4767 27.362
9885 2 38.5159 12.8941 28.9036
9686 2 40.0575 14.3711 27.3578
9687 2 41.6575 12.8402 25.7133
9887 2 41.5657 12.8924 28.8799
9690 2 46.503 14.5195 27.2185
9692 2 49.641 14.4375 27.3405
9891 2 48.1349 12.906 28.9113
9696 2 56.2612 14.5349 27.3076
9701 2 32.1033 16.1546 25.5607
9703 2 35.3747 15.9812 25.6954
9723 2 35.3602 19.1885 25.6891
9705 2 38.6216 15.9485 25.7582
9905 2 38.5692 15.9087 28.8855
9706 2 40.1189 17.6077 27.2898
9727 2 41.6716 19.0989 25.6618
9927 2 41.751 19.2753 28.9451
9709 2 44.8826 15.9436 25.6403
9711 2 48.1039 15.9552 25.7513
9733 2 51.3272 19.3053 25.5925
9913 2 51.2373 16.0513 28.8916
9933 2 51.2712 19.1947 28.8985
9714 2 52.9578 17.6769 27.3114
9715 2 54.4912 16.0688 25.809
9735 2 54.5143 19.2642 25.6614
9935 2 54.5516 19.1456 28.9405
9717 2 57.7254 15.9781 25.7401
9917 2 57.702 16.1144 28.9345
9743 2 35.4564 22.5008 25.7206
9724 2 36.8716 20.8653 27.2596
9751 2 48.1157 22.5401 25.6282
9757 2 57.7741 22.4133 25.7565
9762 2 33.8196 27.2856 27.3167
9963 2 35.2139 25.7693 29.0187
9746 2 40.2342 24.1316 27.3645
9748 2 43.29 24.1836 27.3004
9766 2 40.3118 27.2475 27.4076
9767 2 41.7518 25.6319 25.843
9768 2 43.2893 27.2489 27.3479
9967 2 41.7992 25.7146 28.8054
9750 2 46.6443 24.0603 27.2844
9770 2 46.6295 27.2604 27.3509
9773 2 51.3234 25.6329 25.6075
9971 2 48.0566 25.6427 28.8567
9775 2 54.59 25.7239 25.5789
9782 2 33.7736 30.4261 27.2416
9783 2 35.1427 28.8646 25.7247
9987 2 41.8627 28.792 28.9431
9790 2 46.5524 30.5037 27.2751
9791 2 48.0769 28.8034 25.7459
9795 2 54.5392 28.9066 25.6455
9796 2 56.2466 30.3966 27.2758
9797 2 57.7456 28.9279 25.6885
9997 2 57.7029 28.9472 28.9055
10592 2 49.7369 30.6111 40.1516
10061 2 32.1181 9.53974 32.084
9844 2 36.9635 7.89577 30.3391
9864 2 36.8798 11.3126 30.4512
10044 2 36.9599 8.04205 33.8616
9848 2 43.3264 8.14347 30.5758
10046 2 40.1553 8.09206 33.7159
10067 2 41.7178 9.53021 32.1594
9850 2 46.4748 8.07988 30.5628
10050 2 46.5307 8.00496 33.8658
10069 2 44.9383 9.53736 32.1151
9852 2 49.7562 8.00891 30.536
9872 2 49.6495 11.2907 30.5238
10074 2 52.9889 11.2226 33.7569
9882 2 33.847 14.4376 30.6615
10083 2 35.3913 12.8385 31.9526
9884 2 36.9601 14.4241 30.4824
9886 2 40.1142 14.3806 30.4574
10087 2 41.6832 12.8479 32.0942
9892 2 49.7033 14.427 30.5133
10091 2 48.1703 12.7982 32.0462
10095 2 54.5729 12.8289 32.0734
10103 2 35.3899 15.9529 32.0699
10123 2 35.427 19.2981 32.2037
10104 2 36.7797 17.5638 33.6094
10106 2 40.1612 17.6136 33.6773
10107 2 41.699 16.1329 32.2088
10108 2 43.3968 17.6529 33.6859
10129 2 44.8529 19.3204 32.1399
9912 2 49.8158 17.711 30.4602
10131 2 48.2032 19.338 32.1905
9916 2 56.2473 17.6943 30.4019
10117 2 57.751 16.1107 32.0148
9922 2 33.7881 20.7554 30.6459
10124 2 36.9412 20.891 33.7794
9928 2 43.3278 20.835 30.5244
10126 2 40.0778 20.9113 33.8078
10130 2 46.6292 20.9371 33.675
10132 2 49.716 20.9461 33.7621
10151 2 48.1058 22.5379 32.25
10134 2 52.9487 20.8977 33.7598
10155 2 54.4675 22.373 32.1561
9942 2 33.8435 24.1895 30.4678
9962 2 33.7815 27.2242 30.587
10142 2 33.8582 24.1145 33.6904
10162 2 33.8303 27.2131 33.6837
10163 2 35.3214 25.6681 32.1486
9964 2 36.8295 27.2009 30.5642
10144 2 36.9548 24.1599 33.7485
10164 2 36.9186 27.1383 33.6488
10165 2 38.4505 25.7217 32.1479
9968 2 43.2933 27.2032 30.4004
10146 2 40.0482 24.1769 33.7529
10168 2 43.3141 27.2135 33.939
9950 2 46.5779 24.1493 30.5096
10150 2 46.598 24.0567 33.8057
10170 2 46.4951 27.262 33.7603
9972 2 49.6948 27.193 30.5423
10152 2 49.7641 24.0493 33.8051
10173 2 51.2933 25.6997 32.104
9974 2 52.919 27.2144 30.5578
9976 2 56.2181 27.3643 30.4318
10183 2 35.3241 28.6585 32.1035
9988 2 43.2779 30.4968 30.4807
10188 2 43.347 30.5532 33.7188
9990 2 46.5531 30.4323 30.5601
9994 2 52.9919 30.55 30.5937
10196 2 56.0346 30.5141 33.7167
10243 2 35.4061 6.48281 35.351
10262 2 33.5788 11.2329 37.0605
10244 2 36.9445 8.00442 36.8789
10264 2 37.0177 11.1232 36.9002
10265 2 38.4752 9.52891 35.2972
10248 2 43.4421 7.84752 36.9359
10269 2 44.9318 9.558 35.4172
10270 2 46.4786 11.0678 36.9339
10271 2 48.0104 9.57401 35.3521
10273 2 51.3962 9.74948 35.3194
10284 2 36.9024 14.5264 36.9369
10287 2 41.7469 12.8611 35.3387
10290 2 46.3551 14.5454 37.0018
10295 2 54.5593 12.7688 35.2493
10590 2 46.553 30.5319 40.1466
10302 2 33.6734 17.6526 36.8514
10303 2 35.3781 16.1138 35.4174
10321 2 32.1879 19.1885 35.3372
10304 2 36.9702 17.6529 36.9687
10309 2 44.9007 16.1225 35.2847
10333 2 51.3433 19.4275 35.2999
10314 2 52.9807 17.657 36.8686
10315 2 54.4812 16.0865 35.3481
10345 2 38.5072 22.4937 35.1808
10328 2 43.3729 20.8591 36.9549
10332 2 49.7986 21.0052 36.8982
10351 2 48.2011 22.5045 35.2143
10353 2 51.2724 22.4537 35.2453
10336 2 56.1965 20.9264 36.9908
10342 2 33.6999 24.0699 36.9899
10363 2 35.3024 25.5873 35.1939
10365 2 38.5037 25.6801 35.1882
10348 2 43.322 24.2145 36.8488
10366 2 40.1519 27.2051 36.8378
10367 2 41.683 25.6962 35.3661
10369 2 45.0737 25.7291 35.3602
10370 2 46.4788 27.2671 36.959
10373 2 51.25 25.6125 35.3219
10375 2 54.5487 25.6201 35.3885
10381 2 32.1504 28.9289 35.3081
10382 2 33.5984 30.4808 36.8328
10387 2 41.8473 28.8757 35.2625
10390 2 46.4731 30.5485 36.8802
10393 2 51.3173 28.9102 35.3479
10395 2 54.5708 28.9659 35.2697
10589 2 45.0647 28.9435 38.4894
10441 2 32.1269 6.46799 38.5546
10621 2 32.1196 6.458 41.7286
10622 2 35.2424 6.49227 41.6984
10442 2 33.574 7.97954 40.1242
10461 2 32.1706 9.72107 38.5767
10462 2 33.5156 11.2792 40.0525
10444 2 36.8893 8.02963 40.2047
10633 2 38.5726 9.65121 41.7312
10446 2 40.2298 7.95465 40.0886
10468 2 43.4036 11.3195 40.0686
10450 2 46.5442 7.99748 40.1203
10470 2 46.5814 11.2308 40.1219
10471 2 47.956 9.64763 38.5788
10636 2 47.9684 9.71622 41.6867
10456 2 56.2386 7.93873 40.0872
10476 2 56.2347 11.3657 40.1056
10477 2 57.7223 9.68499 38.7102
10482 2 33.5568 14.3714 40.1016
10644 2 41.7888 12.7497 41.7211
10489 2 44.9617 12.7222 38.5317
10646 2 48.0205 12.8786 41.8064
10495 2 54.7009 12.9074 38.6786
10496 2 56.1849 14.4231 40.1827
10497 2 57.7371 12.8244 38.6641
10649 2 57.7322 12.8574 41.7185
10521 2 32.1484 19.2481 38.4945
10662 2 35.229 19.2348 41.7257
10505 2 38.4178 16.0352 38.4138
10525 2 38.4257 19.2768 38.5055
10507 2 41.8391 16.1251 38.6039
10508 2 43.4295 17.6689 39.997
10509 2 44.9679 16.0806 38.594
10529 2 44.8364 19.3547 38.5843
10514 2 53.0239 17.5985 40.2453
10658 2 54.6027 16.0734 41.7861
10516 2 56.1694 17.7144 40.325
10669 2 57.7564 19.2976 41.8853
10522 2 33.6912 20.8358 40.1247
10541 2 32.157 22.4956 38.5797
10672 2 35.2502 22.5562 41.7839
10673 2 38.5113 22.4978 41.8378
10528 2 43.341 20.9241 40.1594
10674 2 41.7116 22.4798 41.7411
10551 2 48.2063 22.4175 38.5298
10553 2 51.3987 22.5279 38.5725
10678 2 54.5686 22.5396 41.8567
10557 2 57.7223 22.3656 38.5239
10679 2 57.7136 22.4301 41.8983
10542 2 33.6326 24.0704 40.1235
10561 2 32.2127 25.6464 38.5296
10562 2 33.6329 27.2064 40.1168
10681 2 32.2348 25.6107 41.6574
10564 2 36.9789 27.215 40.148
10683 2 38.4569 25.6841 41.7571
10546 2 40.0886 23.9978 40.2607
10570 2 46.5767 27.2908 40.057
10571 2 48.066 25.8143 38.4458
10554 2 52.9686 23.9622 40.1421
10574 2 53.0543 27.3749 40.1692
13609 2 45.0604 32.044 25.7989
13613 2 51.3716 32.0817 25.6321
14007 2 41.8584 32.074 32.102
14602 2 35.3134 32.0405 41.7787
14413 2 51.2635 32.0877 38.5576
14606 2 48.1146 32.0647 41.7334
10731 2 33.6207 11.317 43.2839
10842 2 33.6163 8.08914 46.4864
10733 2 40.2592 11.2611 43.2729
10734 2 43.3188 11.3107 43.3121
10848 2 43.277 8.07095 46.6245
10735 2 46.6624 11.2024 43.2352
10872 2 49.8908 11.3442 46.5773
10728 2 56.177 8.06136 43.3003
10876 2 56.071 11.3539 46.6553
10882 2 33.5699 14.526 46.5871
10887 2 41.7376 12.7544 44.8243
10745 2 46.6009 14.4674 43.2854
10746 2 49.751 14.5018 43.4183
10747 2 53.085 14.6028 43.5093
10894 2 52.9786 14.5139 46.6273
10895 2 54.5347 12.9992 44.9884
10748 2 56.089 14.6059 43.4485
10751 2 33.7582 17.6902 43.346
10901 2 32.2222 16.1176 44.9585
10902 2 33.6288 17.652 46.5739
10923 2 35.1966 19.1886 44.9609
10905 2 38.5548 16.077 44.9758
10906 2 40.0797 17.6743 46.5103
10929 2 45.1045 19.4512 44.9456
10911 2 48.2286 15.9525 44.8453
10912 2 49.8583 17.5109 46.512
10913 2 51.4516 16.0142 45.0301
10914 2 53.0456 17.5803 46.6058
10915 2 54.4787 16.0218 45.0297
10935 2 54.5538 19.2983 45.0231
10924 2 36.8028 20.8417 46.445
10763 2 40.1232 21.0668 43.2365
10926 2 40.2783 20.9084 46.5965
10947 2 41.6942 22.5508 45.0469
10765 2 46.48 20.8726 43.408
10930 2 46.5512 20.8676 46.5179
10766 2 49.9392 20.9101 43.4744
10953 2 51.3404 22.5522 44.8721
10768 2 56.1852 20.8251 43.3468
10771 2 33.7199 24.0801 43.2678
10942 2 33.778 24.0775 46.4704
10963 2 35.3319 25.5622 44.8642
10772 2 36.9413 24.0411 43.315
10782 2 36.9158 27.1842 43.389
10774 2 43.2379 24.0077 43.401
10946 2 40.1889 24.0844 46.5105
10948 2 43.3168 24.1325 46.6897
10785 2 46.5602 27.3478 43.4411
10776 2 49.8326 24.1522 43.4835
10973 2 51.321 25.6047 44.8493
10777 2 52.9693 24.0861 43.515
10975 2 54.6397 25.494 44.9383
10778 2 56.1691 24.025 43.3162
10956 2 56.1289 23.975 46.6504
10791 2 33.7951 30.5306 43.3032
10792 2 36.8969 30.5644 43.236
10793 2 40.1719 30.5658 43.3799
10795 2 46.6207 30.4676 43.3108
10990 2 46.5576 30.3853 46.6279
10991 2 48.0228 28.8678 44.9539
11053 2 51.3935 6.50038 48.1952
11055 2 54.608 6.43173 48.2015
11044 2 37.0118 8.07292 49.7226
11065 2 38.4945 9.60772 48.1704
11067 2 41.7638 9.6311 48.0821
11070 2 46.5989 11.2656 49.7661
11052 2 49.8395 8.04135 49.7816
11054 2 53.0366 8.03344 49.6413
11074 2 53.0655 11.3862 49.618
11075 2 54.5609 9.76168 48.2285
11081 2 32.1119 12.9424 48.0679
11087 2 41.7488 12.8739 48.1538
11092 2 49.9505 14.5495 49.7013
11093 2 51.4351 12.8766 48.1309
11095 2 54.5762 12.9201 48.1794
11096 2 55.9888 14.5378 49.6939
11101 2 32.1404 16.0997 48.0661
11103 2 35.2231 16.0974 48.0469
11121 2 32.1274 19.2736 48.0532
11127 2 41.6223 19.252 48.0423
11110 2 46.5926 17.632 49.7661
11113 2 51.4118 16.0977 48.0584
11115 2 54.5221 16.1049 48.1865
11135 2 54.6254 19.2228 48.2837
11116 2 55.9914 17.6135 49.7048
11122 2 33.7276 20.7532 49.6819
11130 2 46.5823 20.8345 49.7742
11155 2 54.6519 22.5366 48.1658
11136 2 56.1508 21.0251 49.6237
11142 2 33.7195 24.0185 49.8466
11166 2 40.1586 27.1304 49.8085
11167 2 41.6347 25.5669 48.1509
11150 2 46.4759 24.2181 49.7334
11169 2 44.9856 25.6276 48.2361
11170 2 46.4813 27.2343 49.7418
11152 2 49.6933 24.2158 49.6636
11171 2 48.1596 25.7549 48.3863
11172 2 49.8047 27.2671 49.771
11173 2 51.3277 25.6118 48.3718
11183 2 35.3824 28.9239 48.2423
11184 2 36.9885 30.4726 49.725
11185 2 38.5968 28.8145 48.2463
11188 2 43.295 30.4479 49.7714
11189 2 45.0255 28.9487 48.3203
11190 2 46.5589 30.4125 49.83
11193 2 51.308 28.7699 48.2196
11251 2 48.0547 6.46047 51.4815
11242 2 33.6802 8.10351 52.9638
11264 2 36.9465 11.2748 52.9617
11265 2 38.4346 9.65622 51.3158
11465 2 38.4887 9.65291 54.6376
11250 2 46.6343 8.02951 52.957
11272 2 49.7919 11.2622 52.949
11273 2 51.4244 9.60965 51.2696
11283 2 35.3489 12.8101 51.3636
11483 2 35.3333 12.7748 54.5918
11285 2 38.4957 12.8586 51.3863
11485 2 38.5277 12.8552 54.5923
11288 2 43.2175 14.5182 53.0405
11487 2 41.718 12.9207 54.5574
11292 2 49.7661 14.561 52.9958
11491 2 48.2725 12.7455 54.5637
11294 2 52.9303 14.5851 52.8717
11296 2 56.2302 14.6185 52.9641
11323 2 35.2815 19.3391 51.4391
11523 2 35.4483 19.3467 54.5224
11304 2 36.9067 17.7488 52.9418
11325 2 38.4595 19.2769 51.4284
11505 2 38.5407 16.0736 54.5973
11307 2 41.7518 16.029 51.4274
11507 2 41.7481 16.0158 54.6665
11527 2 41.8069 19.2912 54.6679
11310 2 46.651 17.5714 53.09
11313 2 51.3487 15.9169 51.3779
11333 2 51.4882 19.3429 51.3431
11511 2 48.2595 16.1688 54.505
11513 2 51.3624 16.0514 54.4999
11315 2 54.6487 16.0172 51.3479
11322 2 33.7592 20.7367 53.0767
11324 2 36.9269 20.7788 52.892
11345 2 38.4054 22.4231 51.4752
11347 2 41.8299 22.5133 51.3919
11547 2 41.8374 22.5029 54.5926
11330 2 46.609 20.9429 53.0528
11551 2 48.1799 22.4278 54.5439
11355 2 54.7949 22.3645 51.4079
11555 2 54.7376 22.353 54.5677
11336 2 56.1166 20.9309 52.9753
11344 2 36.9827 24.0391 52.8901
11364 2 36.9916 27.226 52.9273
11365 2 38.473 25.6698 51.4042
11348 2 43.3043 24.0624 52.806
11367 2 41.8021 25.6494 51.4309
11368 2 43.33 27.1933 52.8348
11369 2 44.9433 25.6754 51.3477
11352 2 49.5955 24.0369 53.0988
11372 2 49.7592 27.3249 52.993
11571 2 48.2334 25.6715 54.4074
11375 2 54.7223 25.6618 51.5079
11356 2 56.1506 24.0568 52.8851
11376 2 56.1874 27.1524 52.8736
11382 2 33.79 30.5469 53.0188
11587 2 41.846 28.7721 54.5119
11391 2 48.1414 28.7544 51.2943
11393 2 51.2651 28.6761 51.3738
11593 2 51.3648 28.8163 54.6492
11595 2 54.4967 28.8377 54.5698
11462 2 33.7974 11.2954 56.2082
11446 2 40.0825 8.0131 56.1542
11470 2 46.6959 11.2806 56.0468
11472 2 49.7914 11.2939 56.1152
11454 2 52.9678 7.91231 56.2809
11683 2 35.2309 12.7682 57.7769
11486 2 40.1742 14.4076 56.142
11723 2 35.3551 19.3054 57.7816
11725 2 38.5819 19.3521 57.7656
11508 2 43.2499 17.6796 56.0549
11512 2 49.8615 17.5714 56.1303
11713 2 51.2422 16.106 57.7739
11733 2 51.3464 19.1958 57.7789
11715 2 54.579 16.1509 57.7733
11737 2 57.7361 19.4346 57.6314
11743 2 35.2647 22.5092 57.7411
11524 2 36.8754 20.8008 56.2505
11528 2 43.3285 20.8903 56.1463
11749 2 44.8857 22.338 57.7765
11532 2 49.8036 20.891 56.2181
11753 2 51.365 22.4859 57.7834
11536 2 56.1807 20.8905 56.2024
11542 2 33.7548 24.0232 56.2108
11562 2 33.7839 27.3316 56.2414
11564 2 36.9125 27.2599 56.2052
11568 2 43.4015 27.2238 56.1779
11574 2 52.9897 27.3355 56.1151
11783 2 35.3879 28.7782 57.7299
11590 2 46.5754 30.5142 56.136
11594 2 52.8744 30.4007 56.0782
11795 2 54.504 28.8011 57.6642
14807 2 41.6054 32.085 44.9532
15015 2 54.6305 32.0492 48.1502
15409 2 45.0196 32.0897 54.5982
15413 2 51.346 32.0312 54.5249
15215 2 54.5565 31.9957 51.3988
15611 2 47.9842 32.0856 57.6697
15613 2 51.3905 32.0286 57.7447
12404 2 36.8854 33.6911 7.99283
12412 2 49.8046 33.697 8.03499
12426 2 40.1963 37.0183 7.95543
12428 2 43.3233 37.0782 7.97627
12447 2 41.7582 38.5576 6.51427
12430 2 46.5194 37.0113 7.95048
12449 2 44.8556 38.4806 6.43929
12451 2 48.1315 38.5081 6.43217
12464 2 36.9002 43.2598 7.97629
12465 2 38.4562 41.8232 6.49727
12446 2 40.0878 40.1718 7.93648
12448 2 43.4083 40.1082 7.8934
12469 2 44.9154 41.7453 6.49643
12470 2 46.5028 43.501 7.95838
12472 2 49.6337 43.4411 8.01446
12454 2 52.9659 40.1318 7.97708
12474 2 52.9774 43.4212 7.96577
12476 2 56.2013 43.3936 7.93982
12482 2 33.6269 46.54 7.94914
12484 2 36.9414 46.5255 7.92734
12491 2 48.1556 44.953 6.47002
12492 2 49.5726 46.513 8.15067
12495 2 54.5289 44.907 6.48735
12502 2 33.6682 49.8728 8.16685
12529 2 44.8542 51.4582 6.46552
12531 2 48.169 51.3818 6.47533
12533 2 51.2626 51.4567 6.55533
12543 2 35.3258 54.6153 6.53041
12524 2 36.9479 53.041 7.96367
12545 2 38.4573 54.5929 6.51354
12528 2 43.3412 52.9972 8.04417
12532 2 49.6886 52.9454 7.97038
12557 2 57.7319 54.642 6.4708
12544 2 36.9588 56.0943 8.04296
12554 2 52.9202 56.3164 8.00832
12633 2 51.3237 35.3373 9.5406
12624 2 36.9838 36.9283 11.1988
12626 2 40.2554 37.0177 11.2524
12632 2 49.7653 36.9705 11.2355
12663 2 35.385 41.7369 9.62116
12644 2 36.8611 40.2529 11.1727
12646 2 40.1752 40.1502 11.2852
12648 2 43.3116 40.1778 11.2294
12668 2 43.3051 43.4466 11.1521
12672 2 49.7901 43.4357 11.2171
12656 2 56.0872 40.0955 11.2069
12676 2 56.1717 43.4417 11.2208
12684 2 36.8398 46.5949 11.3146
12687 2 41.7712 44.9063 9.64002
12689 2 44.954 44.9477 9.66882
12690 2 46.5559 46.6406 11.1573
12691 2 48.1889 44.9566 9.57685
12696 2 56.1329 46.4931 11.3202
12697 2 57.7002 44.9458 9.73502
12721 2 32.1361 51.4316 9.62796
12709 2 45.0377 48.1607 9.74045
12710 2 46.5898 49.6539 11.1922
12711 2 48.0656 48.1026 9.66658
12731 2 48.0933 51.3502 9.65366
12737 2 57.7182 51.4445 9.70256
12745 2 38.5319 54.5773 9.71025
12726 2 40.0969 53.1421 11.2661
12747 2 41.645 54.5647 9.66158
12734 2 52.9607 53.0091 11.2203
12755 2 54.448 54.7458 9.71952
12742 2 33.6185 56.1785 11.2242
12761 2 32.1626 57.7314 9.70109
12746 2 40.1471 56.1448 11.2694
12750 2 46.5233 56.1391 11.245
12752 2 49.8004 56.232 11.1479
12773 2 51.4422 57.7664 9.57984
12754 2 52.9993 56.2599 11.1157
12756 2 56.0376 56.1837 11.2737
13003 2 35.2903 32.2138 16.1452
13005 2 38.5955 32.194 16.0117
12806 2 40.0397 33.6113 14.4018
13029 2 44.9523 35.3808 15.9906
12814 2 52.9243 33.7203 14.4457
12816 2 56.2699 33.7518 14.4819
12824 2 37.012 36.9837 14.5058
13045 2 38.5634 38.4255 15.941
12826 2 40.1517 37.0628 14.4535
12847 2 41.6299 38.5957 12.742
12832 2 49.7448 37.0222 14.353
12851 2 48.2769 38.5488 12.8749
12853 2 51.2486 38.5241 12.8553
12855 2 54.685 38.6994 12.7759
12842 2 33.6222 40.1393 14.4931
13063 2 35.3483 41.8521 16.0719
12864 2 36.9573 43.2893 14.5269
13065 2 38.5093 41.9092 15.9866
12866 2 40.082 43.3716 14.4689
12869 2 44.831 41.7842 12.6327
12852 2 49.7899 40.1294 14.3137
12873 2 51.2646 41.7705 12.8053
13075 2 54.595 41.731 15.9856
12856 2 56.042 40.0945 14.4234
12876 2 56.0692 43.3992 14.4
12881 2 32.1374 44.949 12.8498
12884 2 36.9335 46.5856 14.5073
13085 2 38.446 44.9322 15.9598
12887 2 41.7153 44.9006 12.8143
12892 2 49.7611 46.5659 14.3985
12893 2 51.3115 45.021 12.8769
13093 2 51.3429 45.0029 15.9673
12894 2 52.974 46.4541 14.4336
12895 2 54.6196 44.9533 12.8636
12903 2 35.4194 48.1283 12.9255
12923 2 35.4108 51.4412 12.962
13121 2 32.1176 51.3779 16.0776
13123 2 35.3156 51.4438 16.0527
12904 2 36.9001 49.888 14.4569
12925 2 38.4661 51.4213 12.8942
13105 2 38.4057 48.1921 15.8656
13125 2 38.3768 51.469 15.9927
12907 2 41.6434 48.2418 12.8459
13127 2 41.7783 51.3965 16.0872
12909 2 45.0098 48.1674 12.7461
13129 2 44.8805 51.4052 16.202
12911 2 48.1285 48.1632 12.8264
12912 2 49.6843 49.7026 14.4486
13111 2 48.2486 48.2163 15.9466
13133 2 51.3393 51.3642 15.9812
12914 2 53.0144 49.9003 14.4587
12935 2 54.5467 51.3488 12.9442
13115 2 54.5046 48.3047 15.9626
12916 2 56.1683 49.7783 14.5164
12941 2 32.1423 54.7367 12.8284
12924 2 36.9115 52.9231 14.4412
12945 2 38.5431 54.6494 12.8955
12947 2 41.6084 54.6533 12.8489
12932 2 49.8334 52.9497 14.469
12942 2 33.6162 56.2304 14.4461
12944 2 36.9906 56.2233 14.3732
12965 2 38.5529 57.7031 12.8433
12946 2 40.0854 56.1746 14.29
12948 2 43.1857 56.2082 14.3232
12967 2 41.5954 57.7552 12.7651
12954 2 53.0207 56.2352 14.3318
12975 2 54.6014 57.7394 12.708
13002 2 33.7412 33.7072 17.6154
13202 2 33.7466 33.7298 20.8963
13004 2 36.9967 33.6913 17.6313
13204 2 37.0738 33.7441 20.7435
13205 2 38.4841 32.2027 19.1875
13225 2 38.4941 35.2946 19.2014
13006 2 40.037 33.6635 17.6759
13212 2 49.7658 33.6839 20.9405
13215 2 54.6319 32.1136 19.2983
13235 2 54.4821 35.4008 19.3219
13216 2 56.0888 33.7313 20.7827
13241 2 32.1501 38.5364 19.2561
13247 2 41.7432 38.6282 19.2009
13249 2 44.9603 38.6062 19.1726
13032 2 49.8212 36.9871 17.6905
13253 2 51.4461 38.4542 19.1878
13034 2 52.9699 36.9072 17.7111
13234 2 52.9655 36.9634 20.8376
13062 2 33.6755 43.3244 17.6012
13242 2 33.6431 40.0619 20.7988
13064 2 37.0041 43.3259 17.5758
13048 2 43.3489 40.1003 17.8577
13246 2 40.2473 40.0972 20.9282
13050 2 46.5416 40.2247 17.7885
13269 2 44.9594 41.715 19.2618
13270 2 46.5006 43.2766 20.8163
13072 2 49.8068 43.423 17.6804
13271 2 48.1124 41.8044 19.2235
13054 2 53.0023 40.2403 17.6588
13275 2 54.5153 41.7844 19.2802
13276 2 56.179 43.2585 20.8747
13277 2 57.6989 41.8124 19.3499
13293 2 51.2953 44.9422 19.2042
13102 2 33.7076 49.8873 17.5299
13304 2 36.8897 49.7403 21.0218
13108 2 43.2351 49.9973 17.6281
13306 2 40.1784 49.9193 20.9174
13327 2 41.7783 51.3952 19.229
13110 2 46.5491 49.8004 17.5682
13114 2 52.9996 49.7937 17.5499
13122 2 33.7084 52.9273 17.541
13124 2 36.9019 52.9253 17.5733
13128 2 43.2504 52.9741 17.6822
13328 2 43.259 53.0066 20.7614
13347 2 41.7096 54.5345 19.2333
13130 2 46.3921 52.991 17.6433
13349 2 44.8527 54.4488 19.1902
13132 2 49.8593 52.9388 17.6501
13355 2 54.6916 54.45 19.269
13136 2 56.1939 53.0513 17.5781
13336 2 56.2403 52.95 20.8818
13344 2 36.8318 56.2939 20.9023
13146 2 40.1135 56.1286 17.7257
13352 2 49.6239 56.2253 20.8827
13371 2 48.2073 57.7778 19.3088
13404 2 36.9319 33.7371 24.1133
13429 2 44.9929 35.3525 22.499
13411 2 48.2972 32.179 22.5455
13412 2 49.7989 33.6023 24.0972
13443 2 35.3448 38.5899 22.489
13424 2 36.8678 37.0225 23.9971
13426 2 40.2548 37.0546 24.0761
13447 2 41.7588 38.5848 22.5335
13432 2 49.7166 37.033 24.1341
13434 2 53.0108 36.9724 24.0477
13455 2 54.5352 38.4104 22.5112
13436 2 56.2804 37.0495 24.0037
13465 2 38.6172 41.7755 22.5344
13448 2 43.3174 40.0988 24.1595
13466 2 40.1562 43.345 24.0967
13450 2 46.5679 40.1527 24.2302
13475 2 54.6851 41.914 22.4601
13476 2 56.2293 43.3515 23.9385
13477 2 57.7814 41.8414 22.5346
13483 2 35.4081 44.9858 22.5194
13484 2 36.8367 46.5154 24.0804
13489 2 45.0732 44.9612 22.5239
13490 2 46.4779 46.583 24.1801
13492 2 49.6639 46.7395 24.0693
13496 2 56.2355 46.6394 23.9552
13497 2 57.7479 44.9799 22.5203
13503 2 35.3587 48.172 22.4805
13525 2 38.5587 51.2821 22.4583
13506 2 40.1433 49.9261 24.1466
13527 2 41.6784 51.3186 22.4433
13510 2 46.5477 49.6615 24.265
13511 2 48.0551 48.1253 22.6659
13513 2 51.3169 48.1747 22.6229
13514 2 52.9726 49.6624 23.9935
13515 2 54.6008 48.1438 22.504
13537 2 57.7824 51.4998 22.5073
13522 2 33.6055 52.9484 24.0928
13524 2 37.0727 52.8514 24.0894
13551 2 48.1666 54.6489 22.4681
13534 2 52.9278 53.0051 24.1282
13536 2 56.2981 52.9195 24.1
13552 2 49.6811 56.2038 23.9926
13571 2 48.2172 57.7688 22.4328
13821 2 32.1233 35.2774 28.9395
13604 2 36.9874 33.7459 27.344
13825 2 38.4952 35.359 28.7936
13807 2 41.8522 32.1203 29.0186
13831 2 48.1768 35.4453 28.9399
13843 2 35.3403 38.5949 28.8695
13624 2 36.9372 36.9711 27.3557
13647 2 41.8463 38.5776 25.6686
13630 2 46.6905 37.0105 27.3907
13849 2 44.9767 38.5393 28.8132
13651 2 48.1649 38.5929 25.7039
13851 2 48.2677 38.5708 28.9418
13642 2 33.8186 40.1981 27.3163
13663 2 35.2753 41.7053 25.7562
13863 2 35.2225 41.711 28.9503
13648 2 43.4678 40.1798 27.3234
13666 2 40.2036 43.369 27.2325
13668 2 43.4759 43.4324 27.2509
13669 2 44.9009 41.6458 25.7341
13869 2 44.8761 41.7987 28.8768
13652 2 49.7545 40.0723 27.3817
13873 2 51.3288 41.6364 28.9543
13683 2 35.3528 44.9779 25.683
13883 2 35.2697 44.992 29.0008
13686 2 40.2034 46.6072 27.3589
13687 2 41.7138 44.806 25.8211
13689 2 45.0304 45.0466 25.7918
13690 2 46.3892 46.6057 27.3017
13889 2 44.9156 44.9625 28.8985
13692 2 49.7432 46.6251 27.3104
13893 2 51.2381 45.114 28.9227
13895 2 54.5984 44.8845 28.8762
13725 2 38.5857 51.4 25.6804
13905 2 38.54 48.1478 28.9306
13708 2 43.2615 49.7325 27.402
13727 2 41.7495 51.3794 25.8362
13907 2 41.7013 48.1899 28.8175
13927 2 41.7795 51.36 28.8189
13709 2 44.9605 48.1632 25.6937
13909 2 45.0039 48.1398 28.9253
13711 2 48.0795 47.9909 25.6997
13714 2 53.058 49.7413 27.3719
13915 2 54.4712 48.3378 29.0006
13945 2 38.4839 54.5824 28.9401
13726 2 40.196 52.9611 27.2926
13728 2 43.1736 52.9958 27.3727
13747 2 41.6752 54.5116 25.7569
13947 2 41.6564 54.5151 28.8422
13730 2 46.4215 53.0077 27.3304
13949 2 44.9383 54.4046 28.8025
13732 2 49.8135 52.9389 27.3267
13736 2 56.2032 52.9585 27.3145
13802 2 33.6268 33.7847 30.4211
13808 2 43.2575 33.6647 30.6171
14006 2 40.2963 33.7173 33.6096
14027 2 41.8038 35.3201 32.0887
14010 2 46.5482 33.6575 33.7968
14033 2 51.4122 35.4332 32.1891
14014 2 52.9194 33.7131 33.65
14015 2 54.5522 32.1093 32.1157
13816 2 56.1115 33.7118 30.5818
14022 2 33.8097 36.9658 33.852
14024 2 36.945 36.9934 33.8014
14045 2 38.5654 38.5393 32.1689
14028 2 43.355 36.9668 33.6395
14030 2 46.5984 37.004 33.578
14049 2 45.038 38.5222 32.263
13832 2 49.6359 36.9899 30.4883
14032 2 49.8183 36.9655 33.6918
14051 2 48.2143 38.5099 32.1299
13834 2 52.964 36.8481 30.5598
14034 2 52.9125 37.0242 33.7832
14036 2 56.1896 37.0641 33.7491
14057 2 57.7385 38.4763 32.2159
13842 2 33.8304 40.1244 30.4449
13862 2 33.8154 43.3366 30.435
14064 2 36.9537 43.3347 33.7115
13866 2 40.1854 43.3661 30.5921
13868 2 43.4531 43.3764 30.4536
14046 2 40.0525 40.1476 33.7516
14066 2 40.1135 43.3113 33.672
14067 2 41.7602 41.8695 32.1317
14068 2 43.3645 43.2942 33.6623
14050 2 46.6009 40.0944 33.6063
13852 2 49.7169 40.1625 30.5548
14071 2 48.2146 41.6889 32.1101
14072 2 49.7933 43.228 33.6224
14073 2 51.3484 41.719 32.0853
13854 2 52.8844 40.3175 30.5711
14075 2 54.574 41.6266 31.9857
13856 2 56.1965 40.1194 30.6645
13882 2 33.7291 46.5157 30.4693
13884 2 36.9788 46.4856 30.4776
14085 2 38.522 44.8842 32.0657
13890 2 46.4389 46.4957 30.5121
14089 2 44.8887 44.9213 31.9887
13892 2 49.7476 46.563 30.5166
14092 2 49.7741 46.6413 33.6983
14095 2 54.621 45.0218 32.1564
14096 2 56.1677 46.4971 33.774
13902 2 33.6768 49.8318 30.5142
14102 2 33.5763 49.7669 33.7696
14121 2 32.1267 51.2387 32.0279
13904 2 36.9676 49.675 30.4037
13906 2 40.2731 49.7149 30.4586
14107 2 41.6763 48.1847 32.0151
14127 2 41.7449 51.3922 32.0694
13910 2 46.6002 49.7019 30.4891
14110 2 46.6068 49.7874 33.6217
14111 2 48.1232 48.0572 32.0474
14131 2 47.9988 51.3165 32.0813
14133 2 51.4244 51.2493 32.0902
13914 2 52.9704 49.7814 30.5431
14114 2 52.8914 49.7245 33.6191
14135 2 54.534 51.2594 32.0161
13916 2 56.0963 49.7307 30.5178
13924 2 36.9582 53.0306 30.4537
14128 2 43.3498 52.9187 33.6147
13930 2 46.4319 53.0383 30.5269
14149 2 44.879 54.5258 32.2164
14132 2 49.663 52.773 33.661
13934 2 52.9417 52.8434 30.5539
13936 2 56.0707 52.8895 30.6427
13942 2 33.6797 56.1674 30.5272
13944 2 36.9278 56.1476 30.4381
13946 2 40.131 56.0394 30.3793
14146 2 40.1569 56.1877 33.7369
14148 2 43.3169 56.1757 33.6973
14150 2 46.4887 56.0829 33.6624
13952 2 49.8265 56.243 30.5251
14156 2 56.1752 56.1887 33.6722
14223 2 35.3257 35.4375 35.268
14209 2 45.0168 32.1475 35.3434
14210 2 46.5621 33.7367 36.8974
14211 2 48.0654 32.2171 35.3889
14212 2 49.7222 33.7898 36.9755
14216 2 56.1877 33.7029 36.8533
14243 2 35.3254 38.5739 35.3704
14245 2 38.5501 38.5953 35.3534
14230 2 46.6098 36.8486 36.9958
14253 2 51.4056 38.4491 35.2208
14255 2 54.5262 38.5133 35.239
14257 2 57.7339 38.5148 35.221
14242 2 33.7467 40.1731 37.0655
14261 2 32.223 41.7297 35.4376
14262 2 33.5989 43.296 36.9407
14244 2 36.9205 40.122 36.9788
14265 2 38.5381 41.6804 35.307
14246 2 39.9186 40.1617 36.9238
14250 2 46.5825 40.1464 36.8626
14269 2 45.0399 41.6826 35.2328
14254 2 52.9921 40.0944 36.7529
14274 2 53.0034 43.4315 36.6911
14275 2 54.4826 41.7112 35.4286
14256 2 56.1191 40.09 36.7319
14281 2 32.1407 44.9475 35.3328
14290 2 46.4493 46.5359 36.8906
14292 2 49.8951 46.4982 36.7703
14293 2 51.263 44.8595 35.1131
14295 2 54.5977 44.9903 35.3101
14296 2 56.2737 46.42 36.7958
14321 2 32.1243 51.4056 35.4078
14304 2 36.9733 49.8047 36.9575
14325 2 38.4235 51.3404 35.4213
14310 2 46.4709 49.8 36.8315
14329 2 44.9322 51.3615 35.2948
14313 2 51.3226 48.1424 35.2085
14331 2 48.0061 51.271 35.2608
14314 2 52.9717 49.669 36.8452
14316 2 56.21 49.7019 36.8795
14317 2 57.7711 48.0546 35.3056
14322 2 33.6184 52.8784 36.8918
14324 2 36.9177 52.8919 36.949
14330 2 46.4164 52.9256 36.8438
14357 2 57.728 54.5981 35.2401
14348 2 43.2877 56.1327 36.9621
14367 2 41.8101 57.693 35.291
14352 2 49.7379 56.2598 36.8779
14613 2 38.4684 35.3769 41.685
14406 2 40.0494 33.7789 40.2004
14407 2 41.8089 32.2097 38.5509
14408 2 43.4505 33.7218 39.9766
14429 2 45.0965 35.3032 38.4392
14431 2 48.1443 35.35 38.4593
14433 2 51.2476 35.3469 38.4857
14609 2 57.7832 32.1378 41.7361
14441 2 32.1126 38.651 38.4942
14443 2 35.3872 38.636 38.5353
14621 2 32.1045 38.7021 41.7491
14424 2 36.9641 37.0467 40.1323
14445 2 38.4261 38.5814 38.5187
14623 2 38.4368 38.4843 41.7098
14430 2 46.56 36.8009 39.9921
14432 2 49.7675 36.7874 39.9715
14629 2 57.7723 38.394 41.8635
14461 2 32.1853 41.7539 38.525
14462 2 33.6816 43.3033 40.0118
14463 2 35.2896 41.7446 38.5355
14444 2 36.8712 40.1414 39.9864
14464 2 36.8703 43.3362 40.0395
14465 2 38.3824 41.6195 38.5078
14448 2 43.4182 40.1293 40.1964
14635 2 44.9785 41.7271 41.7298
14452 2 49.7615 40.1496 40.1035
14472 2 49.6998 43.4233 40.0993
14474 2 53.099 43.296 40.2017
14638 2 54.5263 41.7552 41.7506
14481 2 32.2455 44.8068 38.5379
14642 2 35.1816 44.8684 41.7296
14485 2 38.4196 44.9116 38.5701
14643 2 38.4161 44.9634 41.6877
14644 2 41.7552 44.8878 41.616
14489 2 44.9498 44.9997 38.4401
14646 2 48.1402 44.8517 41.6965
14494 2 53.0507 46.5201 40.1337
14648 2 54.4674 44.9387 41.6533
14497 2 57.7281 45.0204 38.3849
14501 2 32.1329 48.2721 38.661
14502 2 33.6367 49.7106 40.1789
14651 2 32.1058 48.2307 41.7064
14652 2 35.2272 48.0807 41.7573
14662 2 35.0585 51.3155 41.6803
14525 2 38.4422 51.2848 38.5211
14506 2 40.1871 49.725 40.0564
14507 2 41.6227 48.1823 38.5325
14527 2 41.6819 51.3112 38.5138
14654 2 41.6669 48.2971 41.7178
14509 2 44.9788 48.1675 38.4263
14529 2 45.0576 51.3909 38.4378
14665 2 44.9294 51.3614 41.6753
14666 2 48.0949 51.3326 41.6526
14535 2 54.5931 51.2965 38.3833
14543 2 35.2642 54.4326 38.4284
14672 2 35.2095 54.5222 41.7605
14547 2 41.7408 54.5753 38.4779
14530 2 46.463 52.8987 40.0952
14549 2 44.9628 54.5505 38.5415
14676 2 48.0469 54.516 41.6128
14684 2 41.6603 57.7441 41.6946
14550 2 46.5357 56.1493 40.0731
14573 2 51.2558 57.7529 38.5422
14554 2 52.8203 56.2016 40.0052
14823 2 35.3324 35.4008 44.908
14806 2 40.158 33.6476 46.5577
14705 2 46.4917 33.7101 43.3131
14829 2 44.983 35.3393 44.8102
14706 2 49.5802 33.5491 43.1839
14707 2 53.0135 33.7928 43.4267
14835 2 54.6497 35.2565 44.8104
14708 2 56.272 33.7053 43.4411
14712 2 36.943 36.9513 43.3214
14714 2 43.3568 36.9209 43.4477
14826 2 40.2177 37.0006 46.5819
14847 2 41.7332 38.4659 44.9387
14715 2 46.4835 36.9403 43.4287
14849 2 44.8335 38.4501 44.8318
14716 2 49.7052 37.0238 43.4363
14851 2 48.1789 38.4477 44.8674
14718 2 56.2157 36.9334 43.3803
14721 2 33.6429 40.1615 43.3132
14731 2 33.7267 43.3146 43.3353
14842 2 33.6733 40.0601 46.6327
14861 2 32.2078 41.774 44.8432
14844 2 36.8614 40.0715 46.5455
14864 2 36.8859 43.3805 46.4783
14848 2 43.2998 39.9771 46.4563
14867 2 41.7834 41.6693 44.9477
14735 2 46.5204 43.3402 43.2591
14852 2 49.7439 40.0869 46.4653
14873 2 51.3187 41.6634 44.933
14727 2 52.964 40.2402 43.3643
14875 2 54.6265 41.6971 44.9231
14856 2 56.1523 40.2136 46.6087
14741 2 33.6602 46.6146 43.1292
14742 2 36.8257 46.4901 43.1478
14886 2 40.1133 46.5102 46.5522
14888 2 43.2841 46.5663 46.4859
14889 2 44.9332 44.9521 44.8881
14892 2 49.7154 46.5521 46.5304
14894 2 52.966 46.6098 46.5615
14753 2 40.2258 49.5676 43.348
14754 2 43.3392 49.749 43.2773
14907 2 41.6764 48.1015 44.8923
14929 2 44.8626 51.2689 44.8652
14912 2 49.7677 49.7712 46.5394
14913 2 51.3402 48.1069 45.1489
14931 2 48.1685 51.2852 45.007
14914 2 52.8815 49.7428 46.576
14758 2 56.3151 49.8435 43.3117
14916 2 56.2685 49.8007 46.5532
14937 2 57.7411 51.2622 44.8833
14761 2 33.6327 53.0093 43.2924
14941 2 32.1616 54.482 44.7948
14943 2 35.2554 54.4274 44.9184
14924 2 36.8148 53.0551 46.5798
14763 2 40.1788 52.9813 43.3489
14947 2 41.633 54.5029 44.8426
14949 2 44.9104 54.5771 44.8727
14971 2 48.089 57.7542 44.8494
14777 2 52.9141 56.1045 43.3105
14954 2 52.9701 56.048 46.6449
15005 2 38.6175 32.2236 48.1861
15006 2 40.2089 33.7177 49.8279
15027 2 41.5989 35.2241 48.0494
15012 2 49.6726 33.7448 49.8611
15043 2 35.3439 38.6814 48.0941
15047 2 41.7069 38.5697 48.0532
15049 2 44.8372 38.5411 48.077
15032 2 49.7302 36.8682 49.8449
15044 2 36.9805 40.1204 49.8082
15064 2 36.9423 43.2099 49.8643
15066 2 40.1292 43.1997 49.8174
15075 2 54.6371 41.6825 48.0719
15087 2 41.653 44.9682 48.0166
15091 2 48.2561 45.1574 48.1068
15092 2 49.6905 46.4893 49.8036
15095 2 54.4758 45.0539 47.995
15109 2 44.8027 48.0642 48.0608
15129 2 44.8538 51.3646 48.1025
15112 2 49.8535 49.8441 49.8195
15133 2 51.3464 51.279 48.1846
15117 2 57.7527 48.2279 48.1105
15122 2 33.7506 52.9622 49.7707
15141 2 32.1492 54.4586 48.3211
15143 2 35.2611 54.4 48.2334
15124 2 36.8576 52.9402 49.7343
15145 2 38.4118 54.3372 48.1401
15126 2 40.0047 52.9679 49.6729
15147 2 41.6594 54.4572 48.1676
15149 2 44.9159 54.5643 48.0721
15153 2 51.3781 54.6067 48.1636
15134 2 52.8676 53.0335 49.6899
15155 2 54.4845 54.537 48.2172
15142 2 33.6988 56.0256 49.5848
15403 2 35.3427 32.1045 54.5033
15204 2 36.9932 33.6979 52.9627
15205 2 38.4945 32.1403 51.3525
15425 2 38.4913 35.3093 54.4454
15207 2 41.8179 32.143 51.2853
15208 2 43.3173 33.7997 52.9285
15227 2 41.7323 35.4007 51.4675
15427 2 41.8474 35.3562 54.5048
15229 2 44.7346 35.3417 51.4608
15429 2 44.9035 35.3018 54.6114
15212 2 49.6879 33.7648 52.9765
15231 2 48.1929 35.2312 51.3324
15233 2 51.2219 35.1963 51.3161
15431 2 48.0647 35.228 54.6267
15435 2 54.596 35.2626 54.4989
15222 2 33.699 36.989 52.906
15241 2 32.1418 38.5373 51.4514
15245 2 38.576 38.6214 51.3789
15226 2 40.1552 36.7976 53.015
15228 2 43.2737 36.8199 53.0952
15447 2 41.6711 38.4216 54.4796
15449 2 44.856 38.355 54.5438
15453 2 51.3858 38.5017 54.5531
15457 2 57.7448 38.6228 54.6094
15242 2 33.5092 40.212 52.8612
15244 2 37.0832 40.1162 52.8394
15265 2 38.5135 41.7373 51.3328
15246 2 40.1102 40.1571 52.8033
15266 2 40.058 43.3435 52.9176
15267 2 41.5955 41.8301 51.3919
15268 2 43.2277 43.3081 52.9239
15269 2 44.8073 41.803 51.3259
15475 2 54.7208 41.786 54.5901
15276 2 56.2077 43.3489 53.0911
15483 2 35.323 45.0005 54.5269
15284 2 36.9207 46.4419 53.0093
15485 2 38.5383 45.0069 54.3731
15286 2 40.027 46.5103 53.0008
15288 2 43.2513 46.508 53.0398
15487 2 41.7304 45.0648 54.3751
15291 2 48.1526 45.0415 51.2878
15294 2 52.8758 46.5888 52.8245
15296 2 56.3396 46.5954 53.1005
15497 2 57.7672 45.0216 54.5914
15302 2 33.7083 49.7955 52.9475
15323 2 35.3213 51.4283 51.3339
15304 2 36.9698 49.851 52.8295
15305 2 38.4516 48.0454 51.4689
15325 2 38.415 51.4417 51.3153
15329 2 44.8204 51.3323 51.3647
15312 2 49.7585 49.7594 52.8897
15313 2 51.2875 48.221 51.3625
15331 2 48.2922 51.2503 51.304
15314 2 53.0519 49.7475 52.969
15324 2 36.878 52.8603 52.8391
15547 2 41.5645 54.5573 54.5432
15349 2 44.9299 54.5676 51.442
15353 2 51.477 54.5188 51.3942
15553 2 51.4248 54.5622 54.5437
15334 2 52.9481 53.1211 53.0814
15555 2 54.6022 54.6323 54.5391
15557 2 57.7755 54.638 54.5776
15342 2 33.6918 56.0931 53.0585
15563 2 35.1919 57.6203 54.5177
15344 2 36.8092 56.1998 53.033
15346 2 40.1238 56.073 52.9465
15350 2 46.5444 56.1393 52.8924
15354 2 52.981 56.1778 53.1026
15575 2 54.6069 57.7638 54.4922
15356 2 56.1822 56.1627 53.13
15577 2 57.7356 57.7117 54.5156
15605 2 38.5824 32.112 57.7697
15410 2 46.5687 33.7487 56.1147
15629 2 45.0249 35.2697 57.695
15631 2 48.0324 35.2535 57.752
15635 2 54.5499 35.3208 57.7828
15428 2 43.3408 36.8665 56.0339
15430 2 46.5021 36.7553 56.1864
15651 2 48.0834 38.4581 57.7627
15657 2 57.7583 38.6155 57.7435
15446 2 40.1527 40.0088 56.0923
15456 2 56.2615 40.1036 56.1481
15488 2 43.1458 46.596 56.1807
15490 2 46.5461 46.5793 56.1398
15494 2 53.0152 46.6532 56.2922
15695 2 54.6405 45.133 57.7342
15496 2 56.3006 46.4512 56.2397
15723 2 35.3553 51.5277 57.7601
15705 2 38.595 48.2793 57.7314
15506 2 40.0864 49.6706 56.2402
15707 2 41.6772 48.2293 57.7204
15727 2 41.5709 51.3185 57.7692
15510 2 46.494 49.8537 56.1886
15729 2 44.9854 51.312 57.7424
15516 2 56.0894 49.7262 56.1471
15524 2 36.8868 52.9726 56.2499
15745 2 38.4392 54.4243 57.7407
15526 2 40.1275 53.0788 56.2532
15747 2 41.7071 54.5098 57.7614
15532 2 49.8117 53.0352 56.1719
15536 2 56.2265 53.1588 56.1761
15542 2 33.6622 56.0912 56.0933
15773 2 51.3896 57.7173 57.7696
