ITEM: TIMESTEP
0
ITEM: NUMBER OF ATOMS
2738
ITEM: BOX BOUNDS pp pp pp
0.0000000000000000e+00 6.4203999999999994e+01
0.0000000000000000e+00 6.4203999999999994e+01
0.0000000000000000e+00 6.4203999999999994e+01
ITEM: ATOMS id type x y z
9321 3 32.0625 19.2746 19.2445
1400 3 30.4684 30.4216 20.8574
1399 3 28.7069 28.9072 19.2633
5205 3 6.46289 32.0349 19.201
9281 3 32.0959 12.8591 19.2442
9261 3 32.0661 9.6032 19.3067
4817 3 25.5737 32.0645 12.8167
9181 3 32.0828 28.8969 16.0213
12601 3 32.0437 32.0442 9.56809
8941 3 32.0851 22.5589 12.7466
12801 3 32.0148 32.0752 12.8821
4609 3 12.8117 32.0878 9.60488
1380 3 30.4908 27.263 20.8674
1379 3 28.7686 25.6808 19.3007
1360 3 30.4984 24.087 20.8897
1160 3 30.4372 24.1103 17.6501
8881 3 32.0828 12.8657 12.7354
453 3 19.299 6.45541 6.53642
446 3 7.90862 8.04947 8.07895
468 3 11.1634 11.2643 8.06232
469 3 12.7802 9.6012 6.45091
470 3 14.4602 11.1912 8.04953
472 3 17.6616 11.1744 8.09295
473 3 19.3197 9.68586 6.49489
456 3 23.9743 8.07519 8.04837
458 3 27.2674 7.9821 8.05116
477 3 25.6905 9.66837 6.43991
460 3 30.5872 7.95951 8.04156
479 3 28.8941 9.66084 6.46477
490 3 14.3501 14.4665 8.0194
494 3 20.8304 14.4544 7.98613
497 3 25.6124 12.886 6.46822
498 3 27.3154 14.444 8.12441
499 3 28.8617 12.8645 6.43358
512 3 17.7754 17.6267 7.91081
531 3 15.9953 19.2167 6.44207
516 3 24.045 17.7354 7.89052
520 3 30.5769 17.6632 7.99592
526 3 8.03589 20.8153 7.94837
549 3 12.7606 22.4723 6.48756
540 3 30.5805 20.8654 8.06197
566 3 7.97735 27.3119 8.06141
552 3 17.6632 24.0094 7.94382
554 3 20.8315 24.0272 7.91699
574 3 20.8012 27.2463 8.07365
556 3 24.0719 24.0917 8.06478
576 3 24.0307 27.2623 8.0695
578 3 27.2045 27.2768 8.07626
560 3 30.5569 24.0506 8.03287
580 3 30.5574 27.3094 8.03113
1196 3 23.9842 30.4933 17.5585
587 3 9.65237 28.8952 6.47594
589 3 12.8474 28.8463 6.455
590 3 14.5099 30.5004 8.01611
598 3 27.3274 30.4959 8.07282
1395 3 22.454 28.8728 19.1791
8661 3 32.0847 9.71058 9.62648
648 3 11.1556 8.01718 11.2041
669 3 12.8091 9.5859 9.64454
658 3 27.302 7.95909 11.3047
676 3 23.9584 11.1841 11.1808
677 3 25.6907 9.68473 9.62052
660 3 30.5239 8.00095 11.292
688 3 11.1941 14.3525 11.1379
690 3 14.439 14.3966 11.2158
691 3 16.128 12.8591 9.62337
696 3 23.9872 14.4323 11.2045
707 3 9.49917 15.98 9.62484
727 3 9.65534 19.2125 9.59289
711 3 16.1125 16.0614 9.58532
733 3 19.2831 19.2704 9.56596
716 3 23.9818 17.6836 11.2862
737 3 25.7446 19.3072 9.55844
726 3 8.08306 20.8178 11.349
728 3 11.2679 20.8995 11.2793
747 3 9.73311 22.4968 9.56756
730 3 14.4365 20.9649 11.1234
732 3 17.643 20.8743 11.2137
753 3 19.2842 22.4703 9.6436
736 3 24.0288 20.8053 11.2723
746 3 8.07441 24.0846 11.2106
766 3 8.03516 27.3239 11.1793
767 3 9.71686 25.653 9.61623
768 3 11.3593 27.255 11.2304
771 3 16.0158 25.6327 9.6644
772 3 17.6995 27.3167 11.2754
774 3 20.87 27.2921 11.228
776 3 24.0152 27.296 11.1817
786 3 8.07687 30.4974 11.2904
788 3 11.2643 30.5221 11.3224
789 3 12.914 28.8639 9.64965
791 3 16.0512 28.8178 9.64423
792 3 17.6988 30.4711 11.3815
1051 3 15.9663 6.45749 15.9661
848 3 11.2241 8.05861 14.451
869 3 12.8897 9.63712 12.8398
1071 3 16.0396 9.63025 15.9487
854 3 20.7744 8.07426 14.3422
1075 3 22.411 9.69168 16.0026
856 3 24.08 8.00284 14.3333
876 3 24.0972 11.208 14.3837
880 3 30.5324 11.1949 14.4456
1079 3 28.9 9.47525 16.003
885 3 6.4873 12.7937 12.7821
1085 3 6.49335 12.7974 15.924
889 3 12.7738 12.7217 12.8381
890 3 14.4312 14.4217 14.4354
895 3 22.3666 12.7825 12.791
1095 3 22.4198 12.8308 16.0981
898 3 27.1704 14.4172 14.3696
900 3 30.5101 14.4995 14.4363
905 3 6.50262 15.9386 12.8392
909 3 12.7902 16.0067 12.836
929 3 12.8332 19.2486 12.8449
911 3 16.1482 16.0857 12.8193
933 3 19.2406 19.1676 12.8345
1111 3 15.9814 16.0022 16.1506
1113 3 19.3227 15.9668 15.9828
1131 3 16.0228 19.2296 16.0809
918 3 27.1767 17.7088 14.3883
1139 3 28.8394 19.3391 16.0298
1145 3 6.56367 22.4255 16.1003
930 3 14.4064 20.8845 14.4592
951 3 16.0658 22.5281 12.8492
1151 3 16.019 22.5567 16.0722
934 3 20.7951 20.9481 14.4532
955 3 22.4712 22.5213 12.8333
957 3 25.6882 22.4181 12.8775
940 3 30.5148 20.842 14.3345
1159 3 28.8336 22.4234 16.0241
965 3 6.46664 25.6602 12.8942
966 3 8.08513 27.3061 14.5348
967 3 9.78664 25.6335 12.9055
1169 3 12.8572 25.6355 15.998
971 3 16.0613 25.6561 12.8823
973 3 19.2723 25.6577 12.9316
1171 3 16.1712 25.7061 16.0146
977 3 25.6255 25.7136 12.8174
1177 3 25.5197 25.7236 16.0486
979 3 28.8954 25.6528 12.7565
980 3 30.4674 27.2565 14.4113
988 3 11.347 30.5938 14.5125
1187 3 9.73508 28.9128 16.0817
995 3 22.4278 28.9851 12.8648
999 3 28.8264 28.9817 12.7532
1199 3 28.8131 28.9213 16.0772
1387 3 9.63425 28.9688 19.2669
1245 3 6.43434 6.52847 19.2406
1251 3 16.0324 6.50923 19.1583
1066 3 8.04617 11.2586 17.6811
1068 3 11.256 11.2911 17.5649
1266 3 8.10867 11.3354 20.8597
1268 3 11.2984 11.3794 20.8405
1070 3 14.4379 11.2455 17.6745
1252 3 17.6353 8.03855 20.8448
1273 3 19.1964 9.71185 19.1757
1054 3 20.736 7.99213 17.5543
1254 3 20.8103 8.0236 20.8226
1056 3 24.1366 7.98023 17.5217
1078 3 27.3147 11.1884 17.5646
1256 3 24.0963 7.97608 20.8097
1276 3 24.0391 11.2522 20.8117
1277 3 25.718 9.58822 19.1617
1278 3 27.3488 11.1928 20.8289
1092 3 17.657 14.3289 17.667
1294 3 20.7648 14.4152 20.7585
1098 3 27.2257 14.5527 17.6625
1299 3 28.9369 12.9198 19.2777
1306 3 8.12987 17.5803 20.9038
1327 3 9.70492 19.2047 19.2559
1331 3 16.0335 19.1695 19.2322
1114 3 20.7751 17.7026 17.6306
1314 3 20.8331 17.6866 20.8219
1315 3 22.429 16.0739 19.2098
1116 3 24.0806 17.7262 17.5198
1118 3 27.2228 17.7369 17.65
1317 3 25.6532 16.1953 19.3599
1120 3 30.373 17.6743 17.7484
1326 3 8.06346 20.9095 20.8546
1330 3 14.4198 20.7724 20.8362
1349 3 12.8246 22.455 19.2062
1351 3 16.0595 22.4719 19.19
1353 3 19.2851 22.4239 19.2248
1338 3 27.2127 21.0226 20.8289
1340 3 30.3859 20.8837 20.8473
1365 3 6.48645 25.6069 19.2746
1348 3 11.1554 24.0625 20.839
1367 3 9.63159 25.7578 19.2131
1368 3 11.2486 27.328 20.8516
1350 3 14.4486 24.1004 20.8347
1352 3 17.6797 24.0992 20.8824
1371 3 16.0895 25.75 19.1455
1154 3 20.8728 24.1856 17.5463
10651 3 32.0747 16.0465 41.7007
10501 3 32.0474 15.9536 38.5064
1446 3 8.06822 8.05908 23.9871
1448 3 11.1996 8.02219 24.0151
1450 3 14.4536 8.11163 23.9985
1474 3 20.7454 11.1903 24.077
1475 3 22.4492 9.61674 22.4528
1477 3 25.77 9.57503 22.4813
1479 3 29.0191 9.56764 22.4626
2599 3 28.8962 28.9061 38.5478
1493 3 19.0851 12.8414 22.3883
1494 3 20.7154 14.4896 24.1073
1495 3 22.4311 12.8969 22.5013
1497 3 25.7073 12.8432 22.4701
1498 3 27.3324 14.4587 23.9986
1500 3 30.4947 14.4193 24.119
1506 3 8.12053 17.605 24.0783
1510 3 14.4187 17.5355 23.984
1529 3 12.7026 19.1518 22.4106
1533 3 19.1903 19.2687 22.4075
1514 3 20.8708 17.614 24.0371
1518 3 27.2784 17.6513 24.0419
1537 3 25.6629 19.3162 22.4793
1526 3 8.01211 20.8173 24.1097
1528 3 11.1413 20.7921 24.0583
1530 3 14.4128 20.7792 24.0282
1532 3 17.5369 20.813 24.0048
1565 3 6.45136 25.6499 22.4399
1546 3 8.00135 24.1057 24.083
1548 3 11.1467 24.0998 24.0546
1568 3 11.1261 27.349 24.0908
1550 3 14.4492 24.0683 24.0563
1569 3 12.8161 25.695 22.4765
1576 3 24.1304 27.2497 24.0112
1560 3 30.4351 24.1226 24.1909
1579 3 28.7656 25.6413 22.5136
1585 3 6.5745 28.8903 22.4907
1588 3 11.2446 30.5096 24.1408
1589 3 12.8803 29.002 22.4351
1594 3 20.8241 30.4387 24.0366
1595 3 22.4309 28.7977 22.3416
1596 3 24.1163 30.5169 23.9719
1597 3 25.649 28.8412 22.2678
1598 3 27.2557 30.3779 24.0529
1600 3 30.4007 30.3291 24.0855
2598 3 27.206 30.4914 40.2074
2597 3 25.5007 28.8897 38.5947
10301 3 32.0964 15.9783 35.2561
10101 3 32.0802 16.0178 32.12
2594 3 20.817 30.3953 40.2404
1651 3 16.0502 6.47284 25.6778
1865 3 6.46951 9.67945 28.7919
1646 3 8.16776 8.04679 27.184
1666 3 8.07446 11.3511 27.1406
1650 3 14.3498 8.11931 27.2428
1871 3 16.0614 9.7001 28.9183
1658 3 27.3899 7.91304 27.2667
1677 3 25.7532 9.65262 25.721
1679 3 28.9942 9.60448 25.632
1879 3 28.9041 9.67052 28.9309
1694 3 20.7791 14.337 27.3319
1696 3 24.0814 14.3732 27.3765
1697 3 25.7228 12.8201 25.6997
1700 3 30.5787 14.3707 27.3042
2593 3 19.086 28.9266 38.5871
1905 3 6.54433 16.1122 28.7727
1729 3 12.7678 19.0904 25.6725
1711 3 15.9942 15.8979 25.6362
1712 3 17.5505 17.6261 27.2541
1733 3 19.2561 19.1969 25.6237
1913 3 19.2265 16.042 28.881
1915 3 22.4049 16.0349 28.8932
1716 3 24.0796 17.7629 27.3061
1717 3 25.6668 16.0541 25.7221
1719 3 28.8417 16.0416 25.7721
1720 3 30.5559 17.676 27.2836
1919 3 28.83 16.0905 28.9511
1728 3 11.1381 20.7732 27.2614
1747 3 9.56304 22.5031 25.7023
1947 3 9.5648 22.5168 28.8738
1730 3 14.4643 20.7776 27.2496
1734 3 20.8778 20.8117 27.2757
1955 3 22.4722 22.4369 28.8755
1740 3 30.4611 20.8233 27.2134
1959 3 28.8292 22.3867 28.8504
1748 3 11.2131 24.1449 27.2676
1766 3 8.02021 27.2763 27.2972
1773 3 19.1534 25.8205 25.6716
1971 3 16.0727 25.6617 28.871
1754 3 20.8061 24.1228 27.3117
1775 3 22.4847 25.6687 25.6305
1756 3 24.1482 24.0264 27.2828
1777 3 25.7184 25.6717 25.6778
1785 3 6.42941 28.8984 25.7103
1786 3 8.15316 30.4685 27.3183
1989 3 12.7699 28.8869 28.7615
1791 3 16.0368 29.0274 25.6203
1993 3 19.2757 28.9023 28.912
1796 3 24.0481 30.4489 27.3454
1846 3 8.05546 8.03534 30.5544
2048 3 11.2671 8.09002 33.6539
2068 3 11.3121 11.2071 33.6933
1850 3 14.4477 8.05616 30.5817
1852 3 17.6362 7.9993 30.5307
2052 3 17.5451 7.99178 33.6408
2073 3 19.2096 9.7056 32.0436
1854 3 20.7817 7.98085 30.4913
1856 3 24.1228 8.03695 30.4457
2060 3 30.5026 8.05633 33.7157
1886 3 8.06797 14.4167 30.482
1888 3 11.2773 14.5044 30.4974
2086 3 8.00216 14.4436 33.7254
1890 3 14.4896 14.413 30.3731
2095 3 22.4243 12.7605 32.056
2096 3 24.122 14.4317 33.6525
2097 3 25.7017 12.7742 31.9862
2099 3 28.9241 12.8534 32.0375
2590 3 14.4384 30.4569 40.1796
2105 3 6.45879 16.0969 32.0845
1908 3 11.1584 17.5946 30.4651
2108 3 11.1944 17.6282 33.7148
1910 3 14.4414 17.5263 30.3765
2129 3 12.8608 19.1687 32.107
2113 3 19.1312 16.0125 32.0829
2115 3 22.458 16.0486 32.05
1916 3 24.1173 17.6692 30.4046
2137 3 25.7398 19.227 32.1351
2126 3 8.01818 20.8749 33.687
1930 3 14.4531 20.8184 30.489
2130 3 14.4479 20.895 33.7298
2149 3 12.796 22.4884 32.1242
2132 3 17.5879 20.9081 33.7071
2153 3 19.1991 22.4813 32.0101
1934 3 20.8492 20.7412 30.4869
1936 3 24.1371 20.791 30.4289
2136 3 23.9778 20.8007 33.7267
1940 3 30.5054 20.813 30.5246
2159 3 28.8289 22.4135 32.157
1946 3 7.93871 24.1556 30.4794
2166 3 8.04186 27.2882 33.6924
1950 3 14.4067 24.0635 30.4832
2169 3 12.8882 25.7581 32.1431
1972 3 17.5286 27.4122 30.5455
2152 3 17.5928 24.0441 33.7612
2172 3 17.6025 27.4581 33.7805
2175 3 22.3505 25.7466 32.0913
1956 3 24.0933 24.1012 30.4542
1958 3 27.3037 24.1379 30.4108
1976 3 24.0794 27.332 30.4509
2156 3 24.0201 24.0753 33.7133
2176 3 24.0166 27.3653 33.7054
2177 3 25.7336 25.7136 32.1352
1980 3 30.4487 27.2122 30.5317
2185 3 6.42197 28.8579 32.0448
1986 3 8.10817 30.4298 30.4177
1988 3 11.2167 30.5159 30.4428
2188 3 11.2479 30.4697 33.6623
1990 3 14.507 30.5291 30.45
2189 3 12.8682 28.8995 32.0865
2000 3 30.571 30.4377 30.5889
2694 3 9.6844 28.8864 41.7892
2268 3 11.2498 11.1734 36.8984
2250 3 14.4934 8.02018 36.8798
2272 3 17.5445 11.2737 36.9607
2273 3 19.1433 9.561 35.3655
2274 3 20.8766 11.1949 36.9263
2277 3 25.6707 9.52867 35.2055
2279 3 28.9276 9.64557 35.41
2287 3 9.64651 12.8388 35.3082
2293 3 19.1296 12.8671 35.3075
2294 3 20.8246 14.4726 36.8872
2296 3 24.1323 14.4408 36.9418
2297 3 25.688 12.7433 35.2863
2587 3 9.59762 28.8006 38.6096
2308 3 11.2945 17.6184 37.0122
2309 3 12.8709 15.9786 35.3456
2331 3 15.9381 19.1542 35.3458
2333 3 19.1774 19.2117 35.3226
2314 3 20.8536 17.695 36.9641
2315 3 22.5114 16.0677 35.2907
2319 3 28.8895 15.9975 35.3004
2320 3 30.5241 17.691 36.8597
2347 3 9.60574 22.4776 35.3427
2332 3 17.6257 20.8998 36.909
2334 3 20.8221 20.84 36.9553
2336 3 24.0015 20.7785 36.9999
2338 3 27.3153 20.8599 36.8892
2357 3 25.6863 22.4251 35.2764
2340 3 30.5275 20.8602 36.8834
2348 3 11.223 24.1071 36.9655
2366 3 7.86305 27.2228 36.9109
2368 3 11.2683 27.2414 36.9729
2373 3 19.1784 25.7179 35.4263
2375 3 22.3608 25.7088 35.4415
2358 3 27.2977 24.1018 36.9773
2377 3 25.6693 25.7193 35.3339
2378 3 27.2649 27.2979 36.9741
2360 3 30.532 24.1089 36.9692
2380 3 30.5335 27.2291 36.8926
2388 3 11.2938 30.442 36.9897
2389 3 12.9397 28.8758 35.3409
2395 3 22.476 28.9235 35.4545
2398 3 27.2448 30.5671 36.8767
2399 3 28.8906 28.9288 35.2221
2400 3 30.5415 30.5709 36.8917
2586 3 7.97317 30.4422 40.2151
9481 3 32.0631 12.8018 22.392
2623 3 6.45288 6.49626 41.7613
2466 3 8.00091 11.2287 40.1453
2634 3 9.70535 9.66967 41.7763
2450 3 14.4716 7.96006 40.2194
2469 3 12.8503 9.60748 38.5768
2470 3 14.4679 11.2264 40.1969
2472 3 17.5824 11.2195 40.2104
2637 3 19.1971 9.53412 41.7502
2475 3 22.429 9.49712 38.5861
2638 3 22.473 9.57439 41.7224
2476 3 24.0843 11.2154 40.1696
2487 3 9.6591 12.9176 38.5777
2644 3 9.7249 12.8828 41.7846
2489 3 12.8428 12.8783 38.5797
2492 3 17.5969 14.4541 40.2024
2493 3 19.2161 12.8571 38.5533
2646 3 15.956 12.9205 41.8989
2647 3 19.2221 12.8804 41.937
2494 3 20.8747 14.4279 40.2446
2497 3 25.717 12.8283 38.6049
2505 3 6.4502 16.1945 38.6412
2508 3 11.2746 17.6347 40.212
2527 3 9.5975 19.265 38.5486
2664 3 9.53996 19.2135 41.8501
2510 3 14.3463 17.6927 40.1592
2511 3 16.0238 16.0523 38.4999
2513 3 19.1914 16.0906 38.5553
2531 3 16.0086 19.2419 38.4811
2656 3 15.9578 16.023 41.887
2666 3 16.0566 19.3007 41.8116
2515 3 22.4947 16.0543 38.624
2658 3 22.408 16.1484 41.846
2516 3 24.061 17.7753 40.2626
2517 3 25.7319 16.1503 38.5328
2519 3 28.8893 16.0162 38.5106
2539 3 28.8436 19.2045 38.5402
2660 3 28.8311 16.0418 41.7196
2545 3 6.43427 22.5508 38.5824
2673 3 6.4488 22.4261 41.8618
2526 3 8.03971 20.8909 40.1943
2549 3 12.8527 22.3942 38.4943
2553 3 19.2177 22.5027 38.5919
2676 3 16.092 22.5391 41.8061
2538 3 27.3049 20.832 40.2398
2557 3 25.6641 22.4757 38.6312
2559 3 28.9213 22.5076 38.6088
2548 3 11.1634 24.0033 40.1568
2568 3 11.3497 27.2277 40.1913
2571 3 16.0764 25.7929 38.4435
2554 3 20.7348 24.1343 40.2593
2574 3 20.7367 27.2903 40.2354
2575 3 22.4 25.7545 38.5684
2556 3 23.9769 24.0601 40.2327
2578 3 27.2189 27.2534 40.2001
2580 3 30.5783 27.1993 40.1147
2690 3 28.8675 25.6341 41.7113
5405 3 6.45861 32.0448 22.535
5413 3 19.2114 32.0742 22.3896
5415 3 22.464 32.0797 22.32
5809 3 12.8193 32.0933 28.7225
14601 3 32.0939 32.0733 41.77
5613 3 19.1064 32.0515 25.6204
5815 3 22.4413 32.0648 28.9888
5619 3 28.8146 32.0233 25.7307
5819 3 28.8343 31.9979 28.9159
6005 3 6.46445 32.0664 32.063
6013 3 19.1464 32.0855 32.1046
6017 3 25.6801 32.0377 32.2089
6019 3 28.8838 32.0468 32.2105
6205 3 6.45353 32.008 35.3418
6209 3 12.9045 32.0749 35.2967
13601 3 32.0668 31.9943 25.7103
6407 3 9.74415 32.0508 38.6981
6415 3 22.4254 32.07 38.5601
6608 3 22.4202 32.0909 41.7828
6610 3 28.8381 32.0789 41.8275
11781 3 32.0481 28.8099 57.6518
2847 3 9.68693 6.44457 44.9911
2849 3 12.8493 6.4701 44.9798
2724 3 11.2895 8.0777 43.3752
2733 3 8.04439 11.3152 43.3951
2868 3 11.3636 11.297 46.6212
2735 3 14.408 11.1994 43.4921
2852 3 17.6147 8.11829 46.6032
2873 3 19.2236 9.66913 44.9789
2727 3 20.899 8.00953 43.3749
2728 3 24.1528 8.00505 43.2991
2729 3 27.3295 8.04413 43.3347
2738 3 24.0761 11.2428 43.4248
2860 3 30.4259 8.00906 46.4054
2885 3 6.46755 12.9176 45.0321
2744 3 11.2904 14.5298 43.4358
2887 3 9.67104 12.9563 45.0643
2894 3 20.6961 14.5658 46.5524
2748 3 24.0841 14.531 43.3771
2896 3 24.0025 14.5678 46.5163
2750 3 30.4565 14.4699 43.3723
2900 3 30.463 14.5569 46.5019
2925 3 6.50438 19.282 44.9497
2754 3 11.2477 17.6383 43.4381
2929 3 12.8437 19.2499 45.1616
2931 3 16.0921 19.2433 45.0905
2764 3 11.2173 20.8399 43.4188
2926 3 8.14832 20.8604 46.6042
2953 3 19.1792 22.4503 44.9013
2934 3 20.8342 20.8641 46.5765
2955 3 22.4195 22.4192 44.8839
2769 3 27.2529 20.726 43.3687
2936 3 24.0183 20.7849 46.5845
2959 3 28.8529 22.34 45.076
2965 3 6.50682 25.6648 45.062
2774 3 11.0852 24.0051 43.3579
2948 3 11.1557 24.0164 46.6231
2968 3 11.2138 27.3661 46.5317
2785 3 14.3447 27.3687 43.2948
2969 3 12.8339 25.6108 44.9591
2970 3 14.3893 27.3386 46.579
2952 3 17.5729 24.0629 46.5637
2971 3 16.078 25.7377 44.9008
2954 3 20.8547 24.123 46.587
2778 3 24.0219 24.0298 43.3198
2779 3 27.2335 24.0304 43.3477
2788 3 24.0098 27.3312 43.4035
2977 3 25.5683 25.6359 45.0437
2978 3 27.278 27.3274 46.5406
2780 3 30.5113 24.0204 43.276
2979 3 28.8706 25.6518 44.9651
2793 3 8.00737 30.4555 43.4272
2986 3 8.08441 30.4589 46.4793
2795 3 14.3784 30.5151 43.3375
2992 3 17.6722 30.4806 46.6115
2798 3 23.9803 30.4507 43.469
2998 3 27.2779 30.5242 46.5376
11381 3 32.0472 28.948 51.421
3049 3 12.7715 6.51687 48.1605
3053 3 19.3359 6.46939 48.2335
3046 3 7.99843 8.11882 49.8123
3067 3 9.5938 9.77824 48.2047
3050 3 14.3861 8.13341 49.7894
3052 3 17.6858 8.08449 49.8435
3072 3 17.595 11.2619 49.6555
3074 3 20.81 11.1984 49.7667
3075 3 22.4511 9.57708 48.1397
3056 3 24.0468 7.90992 49.7345
3058 3 27.1746 7.939 49.7037
3078 3 27.2729 11.2866 49.675
3085 3 6.48136 12.9581 48.2932
3094 3 20.7761 14.4882 49.6972
3096 3 24.0875 14.5059 49.7666
3100 3 30.3901 14.4994 49.6176
3125 3 6.52161 19.2866 48.2239
3110 3 14.3483 17.5288 49.7589
3131 3 16.0641 19.1931 48.1584
3133 3 19.2431 19.2117 48.1717
3116 3 24.0494 17.7221 49.7557
3117 3 25.7102 16.1211 48.0972
3128 3 11.1698 20.717 49.7711
3149 3 12.8579 22.3754 48.1075
3153 3 19.2218 22.4829 48.2502
3138 3 27.2577 20.7443 49.7165
3157 3 25.6384 22.4298 48.1236
3140 3 30.4592 20.751 49.7012
3146 3 7.97834 23.9969 49.7652
3148 3 11.1838 24.0025 49.7362
3171 3 16.0398 25.7386 48.2881
3173 3 19.1804 25.7015 48.2163
3174 3 20.8281 27.3216 49.7521
3158 3 27.2477 24.059 49.7285
3177 3 25.5519 25.6972 48.1635
3160 3 30.4445 24.0247 49.6707
3180 3 30.4239 27.2898 49.6457
3186 3 8.07765 30.5283 49.8177
3196 3 24.0204 30.5237 49.7579
3197 3 25.6175 28.882 48.1535
3198 3 27.2947 30.5748 49.7927
11281 3 32.0518 12.8664 51.3109
11461 3 32.0643 9.65101 54.4761
11181 3 32.0329 28.9704 48.0848
11061 3 31.9706 9.60518 48.1518
3247 3 9.66711 6.42914 51.2716
3449 3 12.7384 6.5171 54.5935
3246 3 8.03571 8.07768 52.9328
3266 3 8.02992 11.3254 52.8983
3250 3 14.359 8.09006 53.0058
3269 3 12.7466 9.77506 51.4316
3271 3 16.0212 9.77226 51.4678
3274 3 20.8799 11.1884 52.9131
3256 3 24.0132 7.96118 52.9105
3258 3 27.1984 7.95908 52.9042
3277 3 25.6023 9.64159 51.3475
3279 3 28.8973 9.60157 51.3011
3286 3 7.99345 14.5349 52.9728
3290 3 14.2932 14.4275 52.9215
3493 3 19.2538 12.7833 54.6446
3294 3 20.8619 14.4002 52.9782
3297 3 25.6147 12.8611 51.41
3300 3 30.4475 14.4502 52.9267
3499 3 28.8064 12.8452 54.5365
3325 3 6.53126 19.2867 51.4722
3307 3 9.6726 16.076 51.3533
3312 3 17.6526 17.7204 52.9763
3313 3 19.1766 16.0834 51.3038
3511 3 15.9446 16.01 54.5607
3513 3 19.3069 16.066 54.6239
3315 3 22.3853 16.1249 51.3822
3535 3 22.411 19.33 54.4683
3337 3 25.5435 19.3632 51.382
3517 3 25.5767 15.9991 54.5161
3537 3 25.5603 19.3912 54.5491
3519 3 28.7934 16.0845 54.5145
3330 3 14.4603 20.7394 52.9168
3349 3 12.8446 22.4055 51.324
3549 3 12.8094 22.4087 54.5443
3353 3 19.2446 22.485 51.3892
3551 3 16.0935 22.4355 54.4766
3357 3 25.6018 22.4417 51.3919
3559 3 28.9103 22.4289 54.5602
3346 3 7.89565 24.053 52.9258
3348 3 11.131 24.0003 52.9624
3368 3 11.2371 27.2651 52.9899
3567 3 9.54159 25.6994 54.5942
3350 3 14.4379 24.092 52.9499
3369 3 12.887 25.6884 51.2874
3571 3 15.9968 25.7823 54.5092
3375 3 22.347 25.6618 51.394
3575 3 22.3558 25.7984 54.5248
3356 3 23.9494 24.0177 52.9886
3377 3 25.5918 25.7461 51.347
3378 3 27.2777 27.361 53.0984
3577 3 25.5619 25.7707 54.5992
3360 3 30.512 24.1112 52.997
3379 3 28.8231 25.7146 51.3565
3385 3 6.42602 28.8501 51.4567
3387 3 9.63389 28.8464 51.365
3587 3 9.54519 28.9568 54.5878
3390 3 14.3663 30.443 52.8779
3589 3 12.7963 28.9249 54.6079
3392 3 17.6295 30.407 52.8821
3593 3 19.2763 28.8631 54.5066
3395 3 22.3824 28.9405 51.4854
3397 3 25.5977 28.8975 51.4046
3398 3 27.2537 30.5329 53.0078
3446 3 8.09808 8.13355 56.2138
3466 3 8.05953 11.316 56.3116
3470 3 14.1996 11.3013 56.2084
3454 3 20.813 7.99285 56.2206
3456 3 24.0519 8.03594 56.1756
3476 3 24.0233 11.23 56.0902
3478 3 27.2542 11.1412 56.1014
3498 3 27.2009 14.4079 56.1799
3725 3 6.54092 19.2074 57.7233
3508 3 11.0912 17.5528 56.0823
3512 3 17.5877 17.618 56.197
3518 3 27.1436 17.68 56.2303
3520 3 30.4822 17.726 56.1327
3528 3 11.1164 20.8102 56.0825
3530 3 14.4577 20.7932 56.178
3532 3 17.62 20.8227 56.1051
3534 3 20.7938 20.9302 56.0854
3538 3 27.2112 20.926 56.1922
3546 3 7.95579 24.001 56.1374
3550 3 14.4387 24.0823 56.2358
3572 3 17.6099 27.2812 56.2033
3554 3 20.7836 24.0563 56.0897
3556 3 23.9345 24.0442 56.1633
3558 3 27.2527 24.1403 56.1553
3777 3 25.556 25.7704 57.7825
3560 3 30.5046 24.1799 56.1857
3594 3 20.9513 30.5157 56.1987
10861 3 31.9807 9.77 44.8329
7007 3 9.72664 32.0995 48.1395
7405 3 6.5185 32.012 54.6352
7213 3 19.2718 32.0705 51.3108
7413 3 19.2446 32.0508 54.5459
7215 3 22.4322 32.0903 51.4193
7417 3 25.5788 32.0963 54.6389
7607 3 9.61792 32.0655 57.7618
15401 3 32.079 32.05 54.6057
15201 3 32.0698 32.0689 51.3755
7611 3 16.0045 32.0218 57.6526
14801 3 32.0566 32 44.9804
13361 3 32.1011 57.7579 19.2955
5158 3 27.2733 56.2164 17.5493
5156 3 24.1578 56.1984 17.6088
4406 3 8.00069 33.5953 7.98228
4414 3 20.8942 33.6549 8.01645
12901 3 32.0554 48.2333 12.9055
4418 3 27.354 33.6499 8.02562
4437 3 25.6141 35.3515 6.49572
4426 3 8.03547 36.9368 8.07863
4428 3 11.2793 36.8626 8.00525
4455 3 22.483 38.5785 6.43299
4440 3 30.5445 36.9439 8.02962
4466 3 8.09328 43.3523 7.96679
4469 3 12.8503 41.6943 6.49483
4470 3 14.4228 43.4224 8.02686
4474 3 20.8888 43.4137 8.01874
4478 3 27.2483 43.3069 8.07107
4485 3 6.46014 45.0227 6.45
4494 3 20.8253 46.5941 8.03319
4497 3 25.6209 44.9597 6.46027
4499 3 28.8246 44.9555 6.44196
4505 3 6.42925 48.1915 6.44816
4514 3 20.7397 49.8328 8.06628
4515 3 22.4509 48.1975 6.43591
4535 3 22.5349 51.3959 6.42046
4516 3 24.1356 49.8647 8.11182
4517 3 25.6695 48.1372 6.53909
4519 3 28.8723 48.2135 6.54078
4526 3 7.98532 52.9933 8.02844
4528 3 11.2562 52.9796 8.02726
4547 3 9.57865 54.6084 6.42262
4530 3 14.4864 52.9115 7.95677
4538 3 27.265 52.981 7.99168
4552 3 17.681 56.1786 8.04002
4560 3 30.5544 56.1394 8.01691
4608 3 11.2036 33.6627 11.3921
4627 3 9.5992 35.2538 9.69387
12861 3 32.0979 41.717 12.9114
4610 3 14.4962 33.6465 11.3042
4611 3 16.1549 32.1208 9.67844
4614 3 20.8034 33.6177 11.2555
4617 3 25.5916 32.1082 9.65086
4620 3 30.4521 33.6632 11.2052
4639 3 28.8548 35.3349 9.67311
4628 3 11.1967 36.9217 11.2982
4649 3 12.8597 38.5893 9.60199
4632 3 17.6652 36.8729 11.2789
4651 3 16.0425 38.5001 9.53756
4653 3 19.2489 38.4398 9.56386
4634 3 20.804 36.9229 11.3082
4636 3 24.0112 36.9284 11.2419
4638 3 27.3155 36.9696 11.3328
4657 3 25.668 38.5859 9.6379
4646 3 8.05662 40.0597 11.2382
4666 3 8.07969 43.3723 11.2973
4667 3 9.75118 41.7153 9.61086
4668 3 11.2806 43.397 11.2725
4650 3 14.4873 40.1621 11.2551
4652 3 17.6718 40.1429 11.3426
4673 3 19.2375 41.7877 9.70748
4654 3 20.8545 40.1337 11.2892
4674 3 20.8937 43.3948 11.3017
4656 3 24.0278 40.1863 11.3141
4676 3 24.064 43.3535 11.2896
4680 3 30.4932 43.421 11.2449
4687 3 9.69475 45.0382 9.59898
4691 3 16.0411 45.0949 9.6776
4693 3 19.1623 45.0224 9.6599
4694 3 20.8327 46.6103 11.332
4698 3 27.2176 46.6709 11.2336
4706 3 8.10835 49.6578 11.15
4729 3 12.8883 51.2589 9.62366
4731 3 16.1274 51.3062 9.65973
4715 3 22.4995 48.1798 9.65958
4716 3 24.1778 49.8239 11.2638
4726 3 7.97824 52.965 11.224
4728 3 11.2554 52.9387 11.2241
4747 3 9.59143 54.6936 9.63244
4751 3 16.1002 54.5749 9.72239
4755 3 22.5701 54.5168 9.62347
4738 3 27.2955 52.8896 11.2581
4740 3 30.5461 52.9288 11.2621
4759 3 28.9215 54.5975 9.65604
4748 3 11.3207 56.2839 11.2582
4771 3 16.0727 57.7718 9.73174
4756 3 24.1597 56.1795 11.3295
4779 3 28.898 57.7767 9.70256
4825 3 6.44533 35.333 12.9065
5005 3 6.53798 32.1652 16.0356
12821 3 31.9883 35.2816 12.9759
4810 3 14.5093 33.5827 14.5266
4829 3 12.8456 35.2749 12.9443
12661 3 32.063 41.7024 9.57045
4831 3 16.1716 35.2179 12.9285
4835 3 22.3615 35.2754 12.9598
12521 3 32.0516 51.4462 6.47255
4837 3 25.6569 35.2937 12.9357
5017 3 25.6232 32.1273 16.0412
4828 3 11.2405 36.9032 14.5768
4847 3 9.65824 38.5806 12.9467
4832 3 17.7547 36.9603 14.5696
4855 3 22.3885 38.5236 13.0087
4857 3 25.6579 38.5348 12.9672
4865 3 6.49811 41.6989 12.8809
4869 3 12.8718 41.7477 12.8806
4856 3 23.9747 40.2355 14.4954
5077 3 25.7136 41.7399 15.9938
4879 3 28.8466 41.7319 12.8491
4880 3 30.5014 43.429 14.4652
5079 3 28.881 41.7604 16.0214
4895 3 22.4851 44.989 12.9929
4897 3 25.7521 44.9707 12.9049
5097 3 25.7763 44.999 16.0637
4906 3 7.97668 49.7181 14.4905
4927 3 9.68447 51.331 12.8954
5107 3 9.66604 48.1122 16.1116
4909 3 12.9162 48.2096 12.7489
4910 3 14.5336 49.779 14.4254
5129 3 12.8596 51.4615 16.0212
4933 3 19.3063 51.4483 12.7811
5113 3 19.2185 48.2411 16.1109
5133 3 19.2612 51.3699 16.1295
4935 3 22.4609 51.4004 12.9027
5115 3 22.504 48.1961 16.1544
5135 3 22.517 51.3339 16.113
4918 3 27.219 49.8101 14.4696
4919 3 28.8872 48.269 12.8339
4926 3 7.98314 52.9726 14.5038
4947 3 9.67216 54.5966 12.8811
4932 3 17.637 53.0131 14.4224
5151 3 15.9778 54.6082 16.0913
4936 3 24.1353 52.9793 14.5234
4957 3 25.7877 54.5573 12.9362
4940 3 30.5559 52.9355 14.4142
4946 3 7.9624 56.1257 14.4764
5169 3 12.8431 57.6987 16.0561
4952 3 17.7694 56.1595 14.5343
4971 3 16.1263 57.7799 12.8627
5225 3 6.48714 35.3524 19.1745
5207 3 9.66907 32.1192 19.213
5209 3 12.8999 32.1075 19.2279
5229 3 12.8912 35.2489 19.213
5212 3 17.6965 33.7497 20.7915
5231 3 16.1043 35.2652 19.1162
5217 3 25.6713 32.1043 19.2096
5237 3 25.6614 35.3415 19.092
5020 3 30.3876 33.7313 17.6175
5219 3 28.7434 32.1179 19.247
5226 3 8.00848 36.9525 20.8804
5228 3 11.2557 36.9074 20.8305
5247 3 9.61838 38.5077 19.1894
5030 3 14.485 36.9343 17.5339
5230 3 14.5297 36.9298 20.8521
5238 3 27.2317 36.9747 20.8657
5040 3 30.4734 36.9476 17.5354
5240 3 30.4074 36.9052 20.81
5048 3 11.2402 40.1402 17.5379
5068 3 11.2977 43.3015 17.5436
5246 3 7.95119 40.1777 20.8817
5248 3 11.2732 40.2155 20.8712
5267 3 9.64637 41.7781 19.2282
5072 3 17.7656 43.3181 17.6388
5272 3 17.674 43.366 20.8385
5274 3 20.8305 43.4055 20.8585
5275 3 22.4134 41.6842 19.2951
5058 3 27.2202 40.0951 17.6365
5076 3 24.045 43.3592 17.6905
5278 3 27.1676 43.2795 20.8431
5060 3 30.5539 40.1104 17.6047
5279 3 28.9286 41.7419 19.2604
5086 3 7.93289 46.4878 17.6569
5286 3 7.99808 46.5106 20.834
5287 3 9.67481 44.9037 19.215
5288 3 11.2455 46.5212 20.8546
5290 3 14.52 46.5362 20.8738
5092 3 17.7358 46.5145 17.7339
5296 3 24.0354 46.5676 20.8081
5298 3 27.2304 46.5748 20.8012
5299 3 28.8953 44.9081 19.1781
5300 3 30.4791 46.5017 20.8162
5325 3 6.48473 51.363 19.1832
5306 3 8.1153 49.6966 20.8483
5110 3 14.4688 49.7596 17.6996
5309 3 12.7709 48.1965 19.2735
5310 3 14.4815 49.7555 20.9655
5331 3 16.1079 51.3741 19.3506
5314 3 20.7998 49.7674 20.8017
5316 3 24.0851 49.7232 20.8457
5337 3 25.7039 51.3308 19.2062
5120 3 30.4216 49.7515 17.5938
5320 3 30.4218 49.7772 20.8308
5345 3 6.47715 54.561 19.2903
5128 3 11.273 53.0534 17.6549
5347 3 9.58383 54.6033 19.2606
5355 3 22.4766 54.5429 19.1982
5138 3 27.2538 53.0012 17.6096
5336 3 24.0752 52.9816 20.8572
5140 3 30.4785 52.9768 17.64
5369 3 12.8553 57.7293 19.2713
5352 3 17.6086 56.1083 20.8769
5406 3 8.03624 33.7568 24.1054
5407 3 9.69161 32.1191 22.4701
5409 3 12.873 32.202 22.4599
5429 3 12.8378 35.2745 22.5024
5411 3 16.0033 32.1337 22.4896
5435 3 22.4313 35.3557 22.4501
5437 3 25.6545 35.2822 22.38
5419 3 28.8035 32.102 22.419
5426 3 7.99138 36.9369 24.0901
5447 3 9.69245 38.5336 22.5281
5430 3 14.4958 36.9428 24.165
5449 3 12.887 38.613 22.5313
5451 3 16.077 38.7024 22.4093
5453 3 19.254 38.5549 22.3744
5440 3 30.4013 36.9132 24.0251
5446 3 7.99042 40.192 24.0295
5468 3 11.2919 43.291 24.1093
5473 3 19.2219 41.7555 22.4568
5474 3 20.8544 43.4129 24.0728
5478 3 27.2108 43.3144 24.0506
5479 3 28.9045 41.6553 22.4395
5486 3 8.0722 46.5963 24.1014
5487 3 9.68644 44.9027 22.4862
5489 3 12.9045 44.8714 22.4757
5490 3 14.4845 46.5889 24.1388
5492 3 17.6769 46.5636 24.0699
5494 3 20.8372 46.5174 24.0939
5496 3 24.0099 46.5518 24.1269
5497 3 25.5779 44.9263 22.477
5498 3 27.2091 46.5431 24.1329
5500 3 30.3602 46.4388 24.0318
5506 3 8.08207 49.7502 24.1741
5527 3 9.74023 51.3376 22.5252
5509 3 12.7911 48.1565 22.5435
5510 3 14.4431 49.7432 24.1718
5535 3 22.4795 51.3046 22.5301
5516 3 24.0622 49.7082 24.1406
5518 3 27.193 49.7318 24.1722
5520 3 30.4527 49.816 24.134
5539 3 28.7595 51.4446 22.4819
5547 3 9.67336 54.5388 22.6221
5530 3 14.4344 52.968 24.1428
5532 3 17.5896 52.9669 24.1078
5534 3 20.8654 52.8402 24.1763
5569 3 12.9023 57.6977 22.6416
5554 3 20.9359 56.1206 24.0303
5556 3 24.1451 56.1034 24.0739
5560 3 30.3998 56.1955 24.0741
5606 3 8.05743 33.7552 27.3623
5627 3 9.72916 35.346 25.7155
14421 3 32.032 35.3115 38.5584
5829 3 12.8281 35.3137 28.7384
5633 3 19.2412 35.3797 25.5952
5833 3 19.1886 35.2721 28.9077
5615 3 22.4727 32.1104 25.6443
5835 3 22.4752 35.3386 28.9494
5616 3 24.1283 33.7193 27.2745
5837 3 25.655 35.3659 28.9221
5620 3 30.4677 33.7174 27.3375
5639 3 28.7661 35.3273 25.6859
5647 3 9.67468 38.5425 25.7659
5849 3 12.7614 38.5785 28.8603
5632 3 17.5803 36.9733 27.208
5851 3 16.071 38.626 28.9046
5634 3 20.8447 36.9805 27.2962
5855 3 22.4969 38.5848 28.966
5857 3 25.6565 38.6018 28.8907
5640 3 30.448 36.9311 27.3357
5659 3 28.7678 38.5928 25.6547
5668 3 11.3382 43.4367 27.3043
5867 3 9.70881 41.7052 28.8244
5650 3 14.4108 40.1379 27.2265
5671 3 16.0134 41.8156 25.6059
5871 3 16.0823 41.76 28.8397
5873 3 19.2681 41.7656 28.8656
5654 3 20.8758 40.214 27.2298
5679 3 28.9218 41.758 25.6646
5879 3 28.8028 41.7559 28.8309
5691 3 16.035 44.9306 25.7487
5893 3 19.234 45.0149 28.8206
5696 3 23.9769 46.4676 27.212
5700 3 30.4432 46.5631 27.2963
5708 3 11.2396 49.7268 27.2338
5710 3 14.4922 49.7466 27.2275
5909 3 12.8416 48.1303 28.9295
5929 3 12.8538 51.3522 28.9414
5935 3 22.456 51.382 28.8132
5917 3 25.5997 48.1889 28.7942
5919 3 28.8599 48.235 28.8921
5745 3 6.47925 54.5044 25.8096
5732 3 17.6368 52.8147 27.2831
5951 3 15.9711 54.5664 28.9005
5755 3 22.5195 54.4507 25.7394
5738 3 27.268 52.9238 27.378
5746 3 7.9849 56.2161 27.4337
5748 3 11.2874 56.1841 27.3387
5773 3 19.2512 57.7123 25.701
5754 3 20.8485 56.1075 27.3787
5756 3 24.1729 56.0368 27.3687
5777 3 25.8265 57.7396 25.7941
6025 3 6.4871 35.3681 32.0637
6006 3 8.05816 33.7479 33.7348
6007 3 9.63895 32.1427 32.088
6027 3 9.63739 35.3477 32.041
5810 3 14.4391 33.6561 30.49
6029 3 12.8141 35.241 32.1405
14101 3 32.0875 48.1817 32.0636
5816 3 24.08 33.6858 30.5902
5820 3 30.5188 33.6883 30.5025
6039 3 28.8981 35.2449 32.1638
6026 3 8.08431 37.0749 33.7732
5830 3 14.4154 36.9298 30.4775
6030 3 14.387 36.9648 33.6828
5832 3 17.6651 36.9209 30.5366
6053 3 19.2834 38.5691 32.1348
5834 3 20.8213 36.9006 30.5453
5838 3 27.2435 36.9207 30.5301
6036 3 24.0536 36.9511 33.6194
6038 3 27.2194 36.9108 33.6807
5840 3 30.5106 36.908 30.4588
6040 3 30.5384 36.9921 33.7398
6059 3 28.8476 38.6104 32.1403
5846 3 7.97267 40.2332 30.4082
5868 3 11.2939 43.4354 30.4556
6048 3 11.1894 40.0752 33.8066
6068 3 11.263 43.4027 33.7068
5870 3 14.4296 43.349 30.4729
6050 3 14.4028 40.1986 33.6934
6052 3 17.629 40.1631 33.713
6073 3 19.2721 41.7441 32.0592
6074 3 20.809 43.3951 33.7722
6075 3 22.4071 41.7171 32.0327
5878 3 27.2355 43.4364 30.5466
6056 3 24.0338 40.1155 33.6921
6076 3 24.0817 43.3664 33.7001
6077 3 25.6912 41.7268 32.102
5860 3 30.4682 40.1655 30.5067
5880 3 30.4603 43.3621 30.473
6080 3 30.5444 43.3316 33.847
5890 3 14.4427 46.5331 30.5256
6090 3 14.4412 46.6405 33.7221
6091 3 16.0403 44.9116 32.1561
6092 3 17.5761 46.5899 33.7572
6093 3 19.2413 44.9733 32.0551
5896 3 24.0027 46.5 30.4533
5898 3 27.216 46.6043 30.5726
6098 3 27.2589 46.5621 33.722
6105 3 6.4613 48.0839 32.1872
6125 3 6.42592 51.4455 32.166
5906 3 8.07126 49.7304 30.4552
6106 3 8.12206 49.6973 33.8035
6107 3 9.74755 48.09 32.0969
6127 3 9.70263 51.3272 32.1863
6133 3 19.248 51.3001 32.1685
6115 3 22.4362 48.1768 32.2086
6135 3 22.4445 51.4262 32.1402
5916 3 24.0494 49.7522 30.4882
6118 3 27.2639 49.7674 33.6719
6137 3 25.6144 51.472 32.1278
5926 3 8.09849 52.995 30.5011
6128 3 11.3316 52.931 33.7965
5930 3 14.4219 52.9218 30.6708
5932 3 17.6273 52.9418 30.531
6153 3 19.3451 54.5322 32.1
6155 3 22.4609 54.5273 32.0245
6138 3 27.3134 53.0437 33.7354
6140 3 30.5863 52.9566 33.7096
5946 3 7.97195 56.1348 30.5245
5948 3 11.2152 56.0692 30.5158
6146 3 7.97094 56.0937 33.7312
6148 3 11.1728 56.0857 33.8306
6169 3 12.9046 57.7125 32.1081
6152 3 17.7394 56.1708 33.7016
6175 3 22.4299 57.695 32.0646
5958 3 27.3602 56.1294 30.5117
6156 3 24.0738 56.126 33.7715
6158 3 27.3958 56.1974 33.8381
6177 3 25.7142 57.7223 32.1126
6160 3 30.5168 56.1705 33.838
13941 3 32.0367 54.727 28.9024
13741 3 32.0424 54.5568 25.6868
6225 3 6.43194 35.382 35.3531
6206 3 8.04904 33.6987 37.0038
6208 3 11.2867 33.7158 37.0025
6210 3 14.4362 33.653 36.9992
6229 3 12.7876 35.3652 35.3557
13681 3 32.0428 44.8741 25.6993
6212 3 17.6292 33.6757 36.9424
6213 3 19.2928 32.1267 35.376
6231 3 16.0176 35.3033 35.2652
6215 3 22.4665 32.1397 35.2785
6235 3 22.3864 35.2785 35.2183
6216 3 24.0289 33.7397 37.0012
6218 3 27.3002 33.6479 36.9222
6237 3 25.6527 35.2475 35.2999
6239 3 28.932 35.2587 35.3309
6226 3 8.06086 37.0438 37.0089
6232 3 17.6972 36.905 36.8617
6251 3 15.9787 38.5072 35.3337
6234 3 20.8409 36.9168 36.8956
6236 3 23.9738 36.9583 37.0021
6257 3 25.6557 38.559 35.3458
6246 3 8.04004 40.1266 36.9136
6270 3 14.4343 43.3533 37.0604
6252 3 17.6014 40.1224 36.9202
6271 3 16.021 41.8427 35.3042
6258 3 27.2962 40.1285 36.9901
6260 3 30.562 40.1877 36.963
6287 3 9.6477 44.9746 35.4207
6289 3 12.8592 44.9889 35.404
6294 3 20.9265 46.5519 37.0085
6296 3 24.1427 46.6178 37.0164
6300 3 30.6217 46.4688 36.9733
6305 3 6.48249 48.0764 35.4301
6325 3 6.48882 51.4097 35.3667
6312 3 17.6194 49.7567 36.9849
6313 3 19.2665 48.1447 35.3825
6333 3 19.2926 51.3605 35.2496
6314 3 20.9399 49.7608 36.9766
6316 3 24.1014 49.819 36.9776
6318 3 27.2297 49.7355 36.9924
6319 3 28.9719 48.1432 35.3014
6339 3 28.915 51.3784 35.3913
6332 3 17.774 52.9501 36.9282
6351 3 16.0153 54.5209 35.28
6334 3 21.0024 52.9547 36.9099
6352 3 17.7506 56.1914 36.896
6354 3 20.8903 56.1118 36.8873
13641 3 32.0643 38.6546 25.7107
6689 3 25.712 57.6893 41.6815
13621 3 32.0962 35.3556 25.6438
13541 3 32.0813 54.5442 22.5046
6427 3 9.67191 35.3357 38.6119
6615 3 12.8618 35.1805 41.7298
13441 3 32.0756 38.594 22.4583
6431 3 15.9409 35.3366 38.5823
6618 3 22.3998 35.3915 41.7104
6418 3 27.1602 33.6887 40.1813
6686 3 16.1261 57.7063 41.801
6620 3 28.9019 35.3694 41.6525
6426 3 8.08261 36.9849 40.3078
6428 3 11.2119 36.9667 40.1723
6625 3 12.8504 38.6118 41.6859
6432 3 17.6475 36.865 40.144
6453 3 19.2659 38.539 38.5329
6626 3 16.0209 38.5734 41.6718
6627 3 19.2723 38.5055 41.7502
6628 3 22.5461 38.526 41.697
6465 3 6.47207 41.712 38.658
6467 3 9.66014 41.7189 38.6322
6473 3 19.2063 41.7882 38.4918
6636 3 16.1054 41.7106 41.6762
6454 3 20.9058 40.1819 40.0973
6638 3 22.5405 41.7924 41.7593
6458 3 27.2613 40.2142 40.2112
6479 3 28.9119 41.8295 38.5406
6558 3 27.4568 56.0772 40.0493
6487 3 9.62699 44.903 38.5571
6490 3 14.3881 46.5458 40.112
6493 3 19.1181 44.9681 38.5172
6688 3 22.4582 57.7137 41.6547
6663 3 6.43548 51.4135 41.7805
6507 3 9.743 48.1858 38.5268
6664 3 9.79395 51.4297 41.6786
6513 3 19.2067 48.1086 38.6898
6658 3 22.4739 48.1231 41.7533
6518 3 27.2103 49.7562 40.1953
6519 3 28.9322 48.1121 38.5884
6539 3 28.9719 51.3865 38.588
6532 3 17.724 52.8986 40.2549
6551 3 16.069 54.4895 38.5286
6534 3 20.946 52.8988 40.1955
6536 3 24.1082 52.8923 40.0845
6679 3 25.7296 54.4895 41.6782
6565 3 6.46606 57.676 38.5234
6546 3 8.12038 56.1985 40.2951
6567 3 9.71069 57.6997 38.4696
6550 3 14.4584 56.1027 40.1724
6685 3 12.8014 57.7613 41.7979
6552 3 17.6816 56.1849 40.12
6827 3 9.62195 35.1931 44.8744
6810 3 14.365 33.7083 46.6584
6706 3 17.6641 33.6915 43.3182
6811 3 16.0288 32.1298 44.9721
6707 3 20.8111 33.7615 43.4635
6708 3 24.0886 33.7309 43.3306
6816 3 24.0667 33.7214 46.5406
6837 3 25.7762 35.3026 44.9116
6710 3 30.4673 33.7861 43.3725
6820 3 30.3767 33.7483 46.5851
6826 3 8.02631 36.831 46.5468
6828 3 11.2665 36.8011 46.5594
6847 3 9.63696 38.5811 44.8631
6715 3 14.4326 36.8968 43.3386
6849 3 12.8593 38.5452 44.932
6716 3 17.6719 36.8086 43.3621
6851 3 16.0528 38.5023 44.9913
6853 3 19.247 38.4676 44.971
6834 3 20.8886 36.8913 46.622
6855 3 22.4707 38.5564 44.9331
6719 3 27.4039 37.0227 43.3542
6836 3 24.0664 36.9392 46.572
6857 3 25.7067 38.6759 44.8542
6846 3 8.00253 40.1778 46.5359
6848 3 11.2756 40.1834 46.5086
6868 3 11.2643 43.3769 46.5415
6735 3 14.4677 43.2756 43.3034
6871 3 16.1389 41.7839 44.9966
6727 3 20.8528 40.178 43.3562
6875 3 22.4653 41.851 44.9586
6856 3 24.0672 40.1979 46.63
6858 3 27.3327 40.2301 46.5325
6876 3 24.0765 43.4512 46.5478
6885 3 6.53567 44.8566 44.9329
6886 3 8.09506 46.4948 46.6095
6745 3 14.5627 46.5593 43.3025
6889 3 12.8636 44.9319 44.9078
6890 3 14.5577 46.5524 46.5707
6892 3 17.7652 46.5041 46.5155
6749 3 27.3251 46.7253 43.3228
6899 3 28.8762 44.946 44.8971
6900 3 30.4574 46.5683 46.5827
6905 3 6.51475 48.1434 44.943
6753 3 8.09667 49.8204 43.3747
6754 3 11.2724 49.744 43.3212
6908 3 11.1734 49.841 46.5732
6755 3 14.4605 49.7292 43.2876
6910 3 14.5296 49.7531 46.5935
6756 3 17.7491 49.6941 43.3521
6931 3 16.0871 51.3407 44.9063
6935 3 22.6343 51.3189 44.9449
6758 3 24.1738 49.7397 43.3092
6760 3 30.4 49.7589 43.3327
6763 3 8.07383 52.9879 43.4681
6951 3 16.1028 54.5181 44.8522
6767 3 20.925 52.9188 43.3795
6769 3 27.3215 52.87 43.3634
6770 3 30.4672 52.9115 43.3582
6940 3 30.5471 52.9571 46.5116
6946 3 8.09056 56.1662 46.5164
6969 3 12.8004 57.733 45.0282
6952 3 17.6992 56.167 46.482
6777 3 20.9352 56.1329 43.4732
6778 3 24.1526 56.0748 43.3935
6780 3 30.5473 56.0874 43.303
7006 3 8.14279 33.7205 49.7834
15761 3 32.0611 57.7216 57.7402
7015 3 22.3489 32.1196 48.1272
7016 3 24.0801 33.7594 49.8693
7037 3 25.8168 35.3168 48.224
7020 3 30.4109 33.7397 49.7601
7047 3 9.65187 38.4602 48.1908
7049 3 12.9187 38.5212 48.1847
7051 3 16.0239 38.5065 48.1666
7053 3 19.3069 38.4763 48.266
7036 3 24.0203 36.9169 49.8005
7057 3 25.7292 38.5455 48.2113
7040 3 30.5891 36.9635 49.7635
7046 3 8.04987 40.184 49.8059
7048 3 11.235 40.1467 49.8365
7066 3 7.98283 43.4029 49.7812
7067 3 9.66805 41.8289 48.1675
7070 3 14.4749 43.3907 49.7555
7052 3 17.6898 40.0959 49.854
7073 3 19.3149 41.8022 48.2106
7075 3 22.4519 41.812 48.2753
7058 3 27.2383 40.2722 49.7845
7079 3 28.9659 41.8223 48.1944
7094 3 20.8728 46.5164 49.6352
7096 3 24.1302 46.519 49.705
7097 3 25.7666 45.0031 48.115
7105 3 6.48279 48.2134 48.261
7107 3 9.63598 48.1759 48.298
7109 3 12.8257 48.1191 48.207
7110 3 14.4612 49.7797 49.7571
7112 3 17.6392 49.7006 49.6956
7133 3 19.3042 51.2235 48.0009
7115 3 22.5091 48.2213 48.0477
7118 3 27.2742 49.8357 49.6481
7120 3 30.4656 49.781 49.6406
7145 3 6.49406 54.4595 48.1743
7149 3 12.8337 54.439 48.1491
7132 3 17.5708 52.9117 49.6259
7153 3 19.321 54.5009 48.0571
7134 3 20.9891 52.8134 49.6283
7155 3 22.5781 54.4846 47.9989
7157 3 25.7727 54.4179 48.0127
7167 3 9.61349 57.7184 48.1778
7169 3 12.8086 57.6531 48.1453
7171 3 16.0621 57.7448 48.1092
7154 3 20.8275 56.1883 49.6777
7156 3 24.1431 56.1402 49.6474
7158 3 27.3965 56.0359 49.7054
7177 3 25.7358 57.6886 47.9128
7179 3 28.9678 57.6706 47.9992
15721 3 31.9964 51.4354 57.6641
7225 3 6.5582 35.2984 51.4223
7209 3 12.7214 32.1925 51.3565
7211 3 16.0199 32.1483 51.3323
15521 3 32.0173 51.3746 54.4773
7231 3 16.0734 35.3386 51.3382
7214 3 20.8102 33.8082 52.9343
15301 3 32.0517 48.2283 51.3937
7435 3 22.4725 35.2926 54.5936
7218 3 27.2279 33.7573 52.9161
7437 3 25.624 35.3263 54.5925
7220 3 30.3748 33.7878 52.9614
7245 3 6.46123 38.4838 51.3937
7445 3 6.46214 38.5648 54.6168
7247 3 9.6401 38.343 51.4081
7230 3 14.4217 36.8588 53.0105
7249 3 12.8859 38.441 51.314
7451 3 16.0842 38.4846 54.5731
7255 3 22.4073 38.6254 51.3929
7236 3 24.0235 36.9561 52.983
7257 3 25.6457 38.5599 51.3931
7259 3 28.8595 38.537 51.3245
7459 3 28.8544 38.4938 54.5597
7265 3 6.47416 41.7929 51.4739
7269 3 12.885 41.7523 51.3935
7252 3 17.6785 40.1258 52.9179
7272 3 17.6581 43.2753 52.9435
7473 3 19.3496 41.7782 54.6078
7275 3 22.4781 41.7584 51.3993
7258 3 27.2014 40.2117 52.993
7260 3 30.5375 40.1542 52.9661
7279 3 28.9449 41.855 51.3641
7479 3 28.8798 41.8364 54.5475
7485 3 6.43999 45.0022 54.5344
7287 3 9.66976 44.9905 51.3753
7290 3 14.3341 46.505 52.9316
7292 3 17.6938 46.5825 52.9804
7293 3 19.2648 44.8841 51.2897
7491 3 16.0678 44.8818 54.6077
7294 3 20.8864 46.5118 52.9539
7495 3 22.4561 44.8828 54.6178
7296 3 24.1144 46.5233 52.9886
7299 3 28.8834 44.9643 51.3011
7300 3 30.4336 46.5647 53.0282
7307 3 9.64355 48.1662 51.3601
7308 3 11.3557 49.7745 52.9275
7507 3 9.66142 48.1206 54.5266
7527 3 9.58842 51.4003 54.5198
7311 3 16.0308 48.0633 51.2975
7314 3 20.8971 49.7105 52.896
7315 3 22.5375 48.1453 51.2891
7535 3 22.4833 51.3755 54.6145
7316 3 24.1182 49.7486 52.9876
7317 3 25.7415 48.1914 51.3694
7537 3 25.7933 51.3182 54.5811
7319 3 28.859 48.2099 51.4136
7328 3 11.2218 52.9532 52.7969
7330 3 14.4037 52.8549 52.8504
7332 3 17.619 52.9105 52.9057
7553 3 19.2624 54.6238 54.5847
7334 3 20.929 52.9236 52.8992
7355 3 22.5513 54.4814 51.247
7557 3 25.7557 54.5471 54.4933
7559 3 28.9635 54.5474 54.53
7346 3 8.0247 56.0474 52.9312
7348 3 11.1536 56.0368 52.8378
7350 3 14.4227 56.0689 52.945
7569 3 12.7757 57.7058 54.5568
7371 3 16.0705 57.6857 51.31
7571 3 16.1105 57.682 54.6027
7575 3 22.4201 57.7249 54.5908
7356 3 24.0584 56.1249 52.9492
7377 3 25.7541 57.7409 51.3513
7379 3 28.9756 57.6854 51.3604
7408 3 11.181 33.6738 56.098
7629 3 12.812 35.3294 57.7119
7412 3 17.6296 33.7765 56.0634
7631 3 15.9619 35.3187 57.7365
7418 3 27.2698 33.7582 56.2446
7420 3 30.426 33.8143 56.194
15061 3 32.0925 41.6978 48.1383
7426 3 8.05206 36.7648 56.1858
7647 3 9.66253 38.5288 57.6908
7432 3 17.7177 36.914 56.1635
7434 3 20.8384 36.9784 56.2195
7436 3 24.0222 37.0665 56.1634
7665 3 6.45558 41.7132 57.7484
7468 3 11.1702 43.3371 56.0821
7452 3 17.5931 40.2254 56.2232
7454 3 20.9515 40.1541 56.2464
7458 3 27.2137 40.1418 56.1537
7476 3 24.0776 43.2738 56.2452
7685 3 6.44802 44.944 57.782
7486 3 8.10472 46.5225 56.1902
7490 3 14.4437 46.5364 56.1442
7492 3 17.6705 46.5408 56.194
7500 3 30.4802 46.5519 56.1458
7506 3 8.0615 49.7571 56.2587
7709 3 12.8073 48.1463 57.7426
7514 3 21.0207 49.6552 56.2172
7717 3 25.6573 48.147 57.7356
7719 3 28.8697 48.2279 57.6991
7530 3 14.3687 52.9523 56.1932
7532 3 17.652 52.9674 56.2201
7536 3 24.1601 52.9475 56.2476
7765 3 6.4332 57.6331 57.7137
7769 3 12.7889 57.6994 57.7832
14821 3 32.0615 35.3939 45.0048
14901 3 32.0759 48.1549 44.9189
12813 3 51.3573 32.1014 12.7583
12611 3 48.1771 32.0043 9.55724
9375 3 54.646 25.5828 19.3088
9374 3 52.941 27.2443 20.9278
9354 3 52.9411 23.95 21.012
9174 3 52.9908 27.2426 17.7198
8444 3 37.0711 8.02779 8.07605
8468 3 43.4132 11.2214 8.07348
8470 3 46.5903 11.2547 8.09129
8472 3 49.7793 11.1841 7.97225
8454 3 52.9815 8.05174 8.02338
8474 3 53.048 11.294 7.97745
9396 3 56.1691 30.5159 20.815
8483 3 35.4163 12.8117 6.49819
8484 3 36.998 14.4563 8.07034
8492 3 49.77 14.4415 7.97397
8504 3 36.9845 17.6772 8.05402
8505 3 38.6343 16.0832 6.42468
8510 3 46.5982 17.6577 7.97581
8515 3 54.6468 16.0282 6.43904
8543 3 35.3946 22.4576 6.46774
8528 3 43.3599 20.9284 8.00297
8534 3 53.0054 20.7997 7.90015
8563 3 35.3794 25.7073 6.47253
8546 3 40.0742 24.1244 8.00248
8567 3 41.8018 25.6239 6.46126
8550 3 46.6073 24.1049 7.96301
8554 3 52.9346 23.9152 7.92363
8582 3 33.7163 30.507 7.9436
8583 3 35.3446 28.8148 6.4614
8585 3 38.5385 28.8237 6.44924
8586 3 40.2057 30.3977 8.03238
8594 3 52.949 30.5176 7.84763
8651 3 48.1158 6.45159 9.61405
8642 3 33.6782 8.00256 11.2342
8663 3 35.3714 9.64725 9.5725
8664 3 37.0575 11.2695 11.2106
8646 3 40.0721 8.06249 11.2134
8648 3 43.3192 8.06524 11.1839
8652 3 49.7174 8.00418 11.3091
8673 3 51.4648 9.609 9.69593
8656 3 56.2425 8.02351 11.2203
9194 3 53.0836 30.4998 17.749
8687 3 41.724 12.8792 9.64278
8690 3 46.4142 14.4565 11.1703
8693 3 51.3606 12.8151 9.67995
8694 3 53.0206 14.4908 11.1329
8696 3 56.1562 14.4293 11.096
8701 3 32.1769 16.0493 9.6874
8704 3 37.0512 17.6739 11.2199
8708 3 43.2596 17.6022 11.2784
8729 3 44.9236 19.2886 9.61964
8711 3 48.1749 16.0385 9.61241
8716 3 56.2112 17.636 11.116
8745 3 38.5228 22.4061 9.62698
8747 3 41.7798 22.4751 9.65068
8732 3 49.7285 20.7498 11.0499
8734 3 52.9995 20.8929 11.0907
8736 3 56.2479 20.8343 11.0798
8744 3 36.908 24.0784 11.1713
8764 3 36.9723 27.2803 11.1534
8746 3 40.0798 24.0817 11.2438
8767 3 41.8298 25.7559 9.58712
8750 3 46.4669 24.0331 11.0753
8770 3 46.5201 27.331 11.1394
8752 3 49.758 23.9907 11.0314
8774 3 52.9688 27.2172 11.1198
8756 3 56.2845 23.9955 11.0682
8776 3 56.2451 27.2046 11.0936
8782 3 33.8095 30.4802 11.2249
8789 3 44.8653 28.8759 9.50236
8793 3 51.2728 28.8804 9.52305
8794 3 53.0481 30.5422 11.1152
8795 3 54.6362 28.9027 9.46994
9376 3 56.1655 27.3425 20.8412
9392 3 49.7237 30.4809 20.9336
9055 3 54.5325 6.50806 16.0429
9192 3 49.722 30.5082 17.6642
8862 3 33.6952 11.2408 14.4345
8863 3 35.3562 9.61332 12.8169
9063 3 35.3233 9.65749 16.085
8844 3 36.969 7.95595 14.3993
8864 3 36.9378 11.2974 14.3958
8866 3 40.1635 11.3463 14.3525
8850 3 46.5703 8.01132 14.4161
9069 3 44.8576 9.6742 16.0073
9071 3 48.2184 9.55335 16.1044
8874 3 52.9376 11.0967 14.4335
8882 3 33.7891 14.4909 14.4132
8884 3 36.9382 14.4983 14.4244
9085 3 38.5498 12.8983 16.1325
8889 3 44.8554 12.751 12.8191
8890 3 46.4885 14.4438 14.4201
9089 3 44.8837 12.8094 16.0762
8891 3 48.179 12.8047 12.7539
8892 3 49.8108 14.4878 14.4321
9091 3 48.1403 12.7695 16.0859
9093 3 51.3329 12.7314 16.0982
8894 3 52.942 14.4739 14.3783
8895 3 54.5871 12.7246 12.7527
8901 3 32.1047 16.0887 12.7547
8923 3 35.3876 19.3134 12.8035
9101 3 32.103 16.0783 16.1148
8904 3 37.0342 17.6484 14.4691
8908 3 43.2235 17.5993 14.3795
8910 3 46.4624 17.6914 14.3817
9109 3 44.8683 16.0715 16.1063
9129 3 44.836 19.2407 16.173
8911 3 48.1662 16.0695 12.7648
9111 3 48.107 16.0977 16.0887
9133 3 51.3836 19.1893 16.1659
8914 3 52.8986 17.5674 14.3805
8935 3 54.5641 19.2246 12.7549
9115 3 54.559 16.0951 16.0581
9117 3 57.7703 15.97 16.0248
9387 3 41.6956 28.84 19.2617
9143 3 35.3318 22.3742 16.0774
9145 3 38.4839 22.3262 16.0176
9147 3 41.7976 22.3602 15.9854
8930 3 46.4887 20.7835 14.4016
8949 3 44.8226 22.4345 12.7542
9149 3 44.8478 22.3788 16.0831
8932 3 49.7034 20.74 14.4863
9151 3 48.1015 22.4263 16.0229
9153 3 51.3139 22.4882 16.0403
8934 3 52.9776 20.8515 14.451
8955 3 54.6367 22.4646 12.8155
9157 3 57.7001 22.4445 15.9791
8942 3 33.7149 24.0485 14.4473
8963 3 35.2446 25.6719 12.7447
8944 3 36.9228 24.0847 14.399
8946 3 40.0802 23.9986 14.3578
8967 3 41.7887 25.6815 12.7617
8968 3 43.3829 27.3285 14.3771
9167 3 41.7665 25.6182 15.9723
8970 3 46.5215 27.3063 14.3378
9169 3 44.9202 25.5875 16.0308
8971 3 48.1806 25.6247 12.7286
8974 3 52.9671 27.1889 14.4267
9175 3 54.669 25.5715 16.0904
8976 3 56.2207 27.2843 14.4942
8981 3 32.1038 28.8759 12.7387
8982 3 33.8357 30.517 14.4168
9188 3 43.3528 30.4722 17.5996
8985 3 38.5731 28.9103 12.8522
9185 3 38.4661 28.8635 15.947
9187 3 41.6749 28.9658 15.8949
8990 3 46.5489 30.4692 14.3065
8992 3 49.7176 30.4755 14.3963
8993 3 51.3438 28.8545 12.7191
9191 3 48.1229 28.8669 16.0525
8994 3 53.0589 30.4712 14.4188
9385 3 38.4896 28.8226 19.2063
9384 3 36.95 30.5002 20.8305
9042 3 33.7152 7.96847 17.6339
9184 3 36.9565 30.6196 17.5581
9044 3 36.9422 8.00202 17.6656
9264 3 36.956 11.2032 20.8115
9046 3 40.1386 8.08005 17.6374
9068 3 43.1626 11.2244 17.6856
9246 3 40.2059 8.00372 20.8993
9270 3 46.504 11.2087 20.9003
9271 3 48.1772 9.50469 19.2064
9272 3 49.7375 11.171 20.9006
9254 3 52.8103 7.9956 20.8133
9274 3 52.8418 11.159 20.8824
9076 3 56.1625 11.1709 17.6316
9256 3 56.1993 7.93236 20.811
9282 3 33.7857 14.5148 20.8581
9283 3 35.3227 12.8023 19.1983
9088 3 43.1874 14.4318 17.6898
9286 3 40.1619 14.3714 20.7973
9092 3 49.7018 14.502 17.7244
9291 3 48.0903 12.7511 19.2272
9094 3 52.9231 14.4653 17.6752
9295 3 54.4968 12.763 19.252
9302 3 33.7817 17.5947 20.8036
9182 3 33.6967 30.5146 17.6528
9309 3 44.8517 16.1439 19.3692
9312 3 49.6965 17.7423 20.8184
9335 3 54.529 19.2654 19.267
9316 3 56.115 17.5777 20.7944
9341 3 32.1157 22.4768 19.1984
9324 3 36.9379 20.799 20.8306
9345 3 38.4786 22.4237 19.2358
9126 3 40.1341 20.7091 17.6905
9349 3 44.9962 22.3186 19.2967
9136 3 56.1537 20.8212 17.6453
9162 3 33.6455 27.2323 17.6279
9362 3 33.6454 27.2382 20.8338
9363 3 35.3172 25.5895 19.2061
9365 3 38.5093 25.6426 19.2765
9146 3 40.1586 24.0125 17.6242
9166 3 40.1308 27.222 17.5912
9168 3 43.3714 27.2694 17.6445
9346 3 40.2264 24 20.808
9369 3 44.9487 25.5616 19.295
9370 3 46.5728 27.2198 20.9135
9371 3 48.192 25.6075 19.4083
9442 3 33.7027 8.00137 23.9692
9462 3 33.6918 11.1766 24.0617
9444 3 36.9421 8.0323 24.146
9446 3 40.0562 8.05269 24.1894
9467 3 41.7279 9.75859 22.5149
9469 3 44.882 9.60387 22.5445
9454 3 52.8405 7.96322 24.1057
9474 3 52.8961 11.1845 24.0655
9475 3 54.5675 9.55572 22.499
9482 3 33.7127 14.4723 24.1257
9483 3 35.3325 12.786 22.461
9484 3 36.9676 14.4373 24.1286
9489 3 44.7947 12.8539 22.5303
9494 3 52.8783 14.461 24.0823
9496 3 56.1647 14.5014 24.1388
9521 3 32.1122 19.2072 22.5706
9523 3 35.3375 19.168 22.4891
9504 3 36.9351 17.5381 24.1479
9505 3 38.6019 16.0185 22.4476
9525 3 38.5918 19.1483 22.452
9507 3 41.7771 15.9741 22.4847
9515 3 54.4867 16.0311 22.4471
9517 3 57.7816 15.9856 22.3999
9537 3 57.737 19.2631 22.4046
10596 3 56.1156 30.4659 40.2049
9543 3 35.3818 22.5166 22.4405
9524 3 36.9373 20.8439 24.1522
9526 3 40.2602 20.789 24.0733
9530 3 46.5556 20.8416 24.0465
9549 3 44.9605 22.4599 22.4557
9542 3 33.6917 24.0697 24.0924
9563 3 35.3807 25.6446 22.5115
9548 3 43.3499 24.1862 24.074
9572 3 49.7506 27.1504 24.1127
9556 3 56.1624 23.9724 24.0699
9577 3 57.7249 25.7307 22.5001
9582 3 33.7081 30.474 24.0947
9583 3 35.3242 28.8689 22.5245
9586 3 40.0964 30.4856 24.1425
9587 3 41.6694 28.7885 22.4668
9588 3 43.4061 30.4518 24.1687
9589 3 44.9733 28.8165 22.5246
9591 3 48.1992 28.8041 22.5665
9595 3 54.4958 28.8793 22.5827
10696 3 48.1329 28.9028 41.7062
9853 3 51.2596 6.42467 28.8208
9642 3 33.8289 7.95062 27.3411
9663 3 35.3247 9.62991 25.7377
9861 3 32.1361 9.65271 28.8793
9644 3 37.0131 7.97267 27.3511
9648 3 43.3134 8.07362 27.4332
9667 3 41.7152 9.68451 25.7801
9650 3 46.5026 8.0554 27.3419
9669 3 44.9201 9.67743 25.6373
9871 3 48.198 9.58995 28.9872
9674 3 52.899 11.1901 27.2607
9875 3 54.516 9.58318 28.8539
9656 3 56.2081 7.97799 27.2211
9676 3 56.2381 11.1546 27.2854
9683 3 35.3566 12.8432 25.838
9688 3 43.2698 14.3262 27.2685
9691 3 48.0267 12.8183 25.6999
9693 3 51.2297 12.8563 25.6931
9893 3 51.2238 12.8831 28.9378
9694 3 52.932 14.5421 27.3787
9695 3 54.5755 12.8728 25.7399
9903 3 35.3197 15.8753 28.9152
9923 3 35.2782 19.281 28.8906
9704 3 36.9313 17.5344 27.2933
9725 3 38.6023 19.19 25.718
9925 3 38.5393 19.2454 28.8635
9707 3 41.6397 15.9844 25.6859
9729 3 44.9387 19.1638 25.6351
9909 3 44.8972 16.0027 28.8935
9929 3 44.8842 19.245 28.9461
9712 3 49.7541 17.6841 27.2388
9911 3 48.152 16.0611 28.8887
9716 3 56.163 17.6966 27.2943
10593 3 51.3314 28.9226 38.6574
9726 3 40.2669 20.8401 27.2848
9730 3 46.5544 20.8687 27.2723
9749 3 44.9191 22.5327 25.7112
9949 3 44.8836 22.5608 28.9006
9753 3 51.2625 22.4509 25.5696
9951 3 48.1034 22.5181 28.9009
9953 3 51.2991 22.4634 28.8905
9734 3 52.9006 20.7115 27.2903
9755 3 54.5173 22.3869 25.6636
9955 3 54.5341 22.415 28.8753
9742 3 33.7534 24.0447 27.3628
9763 3 35.2874 25.6932 25.7162
9965 3 38.5456 25.7559 28.8682
9769 3 45.058 25.6769 25.7755
9772 3 49.7032 27.2097 27.2411
9973 3 51.3269 25.7172 28.9425
9774 3 52.9936 27.2644 27.1919
9975 3 54.586 25.7314 28.9273
9777 3 57.7289 25.7546 25.6413
9977 3 57.7583 25.7086 28.8848
9786 3 40.2614 30.4529 27.424
9789 3 45.0065 28.8067 25.8118
9989 3 44.9401 28.8351 28.9563
9792 3 49.815 30.428 27.2275
9991 3 48.119 28.8565 28.9174
9995 3 54.5341 28.922 28.9145
10049 3 45.0035 6.45801 32.1552
9842 3 33.8139 8.06006 30.4926
10042 3 33.805 8.10274 33.7197
10064 3 36.8913 11.1737 33.7204
9846 3 40.1329 8.03773 30.4569
9866 3 40.2215 11.2286 30.5061
10048 3 43.3945 8.03601 33.7731
10068 3 43.2771 11.1703 33.7086
9870 3 46.5007 11.2009 30.5183
10070 3 46.5136 11.1438 33.7498
10071 3 48.1591 9.49585 32.1613
9874 3 52.9375 11.2641 30.5004
10054 3 52.7989 7.97626 33.795
10075 3 54.5061 9.63713 32.1185
9856 3 56.2217 7.97348 30.4308
10076 3 56.1405 11.275 33.6962
10084 3 36.8038 14.4177 33.7187
10085 3 38.497 12.8126 32.0268
10086 3 40.1636 14.3878 33.7117
10088 3 43.2669 14.4785 33.7458
9890 3 46.5839 14.4144 30.5112
10089 3 44.8707 12.8279 32.1028
10090 3 46.5344 14.4472 33.7325
10093 3 51.2653 12.7621 32.1475
10094 3 53.0544 14.4024 33.7156
9896 3 56.2372 14.4414 30.4372
10591 3 48.0708 28.929 38.5291
10105 3 38.5226 16.006 32.08
10125 3 38.5361 19.2288 32.2274
9906 3 40.1843 17.5896 30.4561
10127 3 41.7321 19.267 32.1684
10111 3 48.1998 16.1198 32.0794
10113 3 51.2994 16.0608 32.0564
10114 3 52.9044 17.7015 33.7525
10115 3 54.5699 16.1077 31.9992
10116 3 56.2108 17.5645 33.7312
10122 3 33.7406 20.764 33.7079
10141 3 32.2496 22.542 32.0525
9924 3 36.9277 20.8475 30.5644
10145 3 38.5304 22.5199 32.2157
9926 3 40.184 20.8949 30.5029
10128 3 43.3757 20.9185 33.708
9930 3 46.5424 20.8571 30.6225
10149 3 44.9873 22.6254 32.1359
9932 3 49.6989 20.8345 30.5627
10153 3 51.3255 22.4277 32.2336
9944 3 36.8911 24.157 30.5441
9946 3 40.1938 24.1966 30.5434
10166 3 40.1473 27.2522 33.7142
9952 3 49.6614 24.116 30.6
10172 3 49.7971 27.2474 33.7675
9954 3 52.935 24.058 30.606
10174 3 52.9339 27.2058 33.7806
9956 3 56.1811 23.9707 30.4945
10156 3 56.0738 24.0905 33.7039
10177 3 57.7619 25.7091 32.0804
9984 3 36.8259 30.4082 30.5118
10184 3 36.8801 30.43 33.6249
9986 3 40.2489 30.4717 30.523
10187 3 41.9273 28.8211 32.12
10190 3 46.4895 30.5749 33.7366
10191 3 48.0803 28.8035 32.1265
10195 3 54.5153 28.8626 32.1003
9996 3 56.1688 30.5408 30.53
10197 3 57.7434 28.9633 32.1757
10242 3 33.6767 8.07051 36.9805
10261 3 32.1175 9.77144 35.3787
10266 3 40.1602 11.1713 36.8194
10250 3 46.5022 7.94116 36.9394
10252 3 49.6941 8.00171 36.8656
10272 3 49.6857 11.1366 36.913
10275 3 54.527 9.62154 35.3761
10276 3 56.1533 11.3071 37.0291
10695 3 45.0459 28.924 41.717
10282 3 33.6932 14.3815 36.8687
10286 3 40.2114 14.5127 36.944
10289 3 44.9444 12.8287 35.421
10292 3 49.7851 14.4062 36.9383
10323 3 35.4182 19.1818 35.357
10305 3 38.4865 16.1128 35.2964
10306 3 40.1138 17.7048 37.0302
10327 3 41.7428 19.2538 35.3304
10310 3 46.4461 17.6819 36.9757
10329 3 44.925 19.3019 35.3163
10311 3 48.1119 16.039 35.3821
10331 3 48.2006 19.3886 35.2836
10335 3 54.5665 19.2994 35.3779
10337 3 57.7793 19.2814 35.3392
10322 3 33.6579 20.8297 36.9465
10341 3 32.185 22.5371 35.2875
10347 3 41.7132 22.5063 35.3142
10330 3 46.6119 20.9552 36.941
10349 3 44.9927 22.5557 35.3506
10334 3 52.8813 20.9474 36.9297
10355 3 54.5226 22.4841 35.3365
10362 3 33.6821 27.2015 36.8529
10364 3 36.9364 27.1231 36.8366
10346 3 40.0373 24.1111 36.8364
10374 3 52.95 27.2845 36.8973
10383 3 35.3022 28.7937 35.2232
10384 3 36.9269 30.4466 36.8752
10386 3 40.229 30.4541 36.8488
10389 3 44.9114 28.8854 35.317
10391 3 48.0492 28.8309 35.371
10392 3 49.7291 30.5345 36.9011
10394 3 52.9378 30.4826 36.9496
10396 3 56.1394 30.4111 36.9529
10694 3 41.7265 28.9411 41.7854
10587 3 41.7785 28.8208 38.4475
10583 3 35.2746 28.7971 38.5257
10582 3 33.7082 30.4935 40.1401
10443 3 35.3303 6.52634 38.5772
10445 3 38.5184 6.43879 38.5095
10623 3 38.5482 6.45992 41.6618
10586 3 40.2049 30.5271 40.077
10632 3 35.1246 9.65716 41.622
10464 3 36.9268 11.2148 40.1824
10465 3 38.4758 9.54535 38.5277
10466 3 40.1704 11.2089 40.1345
10634 3 41.8795 9.64757 41.6611
10638 3 54.7367 9.63714 41.6641
10693 3 38.4665 28.8907 41.7782
10483 3 35.2603 12.7665 38.5082
10485 3 38.495 12.8312 38.4358
10487 3 41.8233 12.8162 38.518
10490 3 46.4697 14.4345 40.1555
10491 3 48.0221 12.7975 38.5031
10493 3 51.3761 12.8235 38.5729
10648 3 54.619 13.004 41.8118
10584 3 36.8873 30.4838 40.1319
10502 3 33.6488 17.7203 40.0954
10503 3 35.2756 16.062 38.4767
10504 3 36.9314 17.6732 40.1166
10663 3 38.5546 19.2849 41.8161
10664 3 41.7426 19.3047 41.6699
10512 3 49.7617 17.6226 40.1794
10513 3 51.4651 16.0876 38.5345
10531 3 48.2365 19.3084 38.5191
10533 3 51.4387 19.2458 38.5534
10515 3 54.6567 16.1383 38.573
10668 3 54.5704 19.2342 41.8186
10659 3 57.6916 16.0926 41.8007
10543 3 35.2411 22.4844 38.553
10671 3 32.171 22.4158 41.6881
10524 3 36.8623 20.8633 40.2092
10545 3 38.5239 22.499 38.5496
10547 3 41.7267 22.4528 38.5155
10530 3 46.565 20.8632 40.1666
10549 3 44.8848 22.5135 38.5086
10675 3 44.9172 22.4735 41.8128
10532 3 49.8364 20.9816 40.1577
10676 3 48.2542 22.4839 41.9223
10534 3 53.0003 20.9435 40.2073
10536 3 56.2018 20.8727 40.2129
10563 3 35.2916 25.6196 38.5731
10682 3 35.2963 25.7053 41.7713
10544 3 36.9371 24.0391 40.2525
10548 3 43.3137 24.098 40.1485
10566 3 40.1148 27.2219 40.1529
10684 3 41.7325 25.6105 41.7875
10550 3 46.6614 24.1127 40.0859
10685 3 45.0211 25.7385 41.7636
10573 3 51.3767 25.643 38.6275
10575 3 54.5343 25.6512 38.6265
10556 3 56.2232 23.9716 40.1966
13415 3 54.5463 32.0662 22.4613
13603 3 35.4032 32.0922 25.7369
13801 3 32.179 31.9873 28.8824
13805 3 38.4866 32.0716 28.8957
13809 3 44.975 32.0305 29.0344
13811 3 48.1569 32.0443 28.9471
13813 3 51.4338 32.0336 28.9348
13615 3 54.5951 32.0514 25.7465
14013 3 51.3816 32.0938 32.1586
14203 3 35.2539 32.053 35.3033
10855 3 54.6638 6.45473 44.8696
10857 3 57.7028 6.44562 44.8918
10721 3 33.5769 7.99888 43.2863
10863 3 35.2097 9.65073 44.9281
10722 3 36.8809 8.07098 43.2674
10844 3 36.9783 8.03025 46.5709
10723 3 40.2045 8.02503 43.2571
10846 3 40.1686 8.00255 46.5931
10866 3 40.1734 11.2208 46.5516
10868 3 43.3176 11.2483 46.5217
10725 3 46.6067 7.98772 43.2444
10869 3 44.9269 9.636 44.8406
10736 3 49.738 11.3159 43.2267
10873 3 51.3547 9.71503 44.9212
10854 3 53.0313 8.0612 46.5724
10738 3 56.1967 11.3474 43.3693
10877 3 57.7022 9.69681 45.0726
10741 3 33.6536 14.4627 43.3027
10883 3 35.1955 12.8596 44.9556
10884 3 36.9063 14.512 46.4791
10743 3 40.1788 14.4433 43.2863
10744 3 43.3123 14.3758 43.2195
10886 3 40.1728 14.4164 46.5078
10888 3 43.3518 14.3942 46.5233
10889 3 45.0628 12.8164 44.7955
10892 3 49.8192 14.4681 46.5616
10896 3 56.0554 14.5758 46.6116
10897 3 57.7211 12.9505 45.0469
10904 3 36.8527 17.6799 46.443
10754 3 43.3729 17.789 43.4309
10907 3 41.7529 16.1116 44.963
10755 3 46.5898 17.73 43.4154
10756 3 49.8338 17.6155 43.4749
10922 3 33.668 20.8282 46.4536
10762 3 36.8164 20.8966 43.3761
10764 3 43.2644 20.9483 43.4739
10767 3 53.0096 20.9171 43.4946
10957 3 57.7585 22.4158 44.9917
10962 3 33.8244 27.2934 46.4949
10944 3 36.9057 24.0869 46.5329
10965 3 38.5195 25.6122 44.9415
10783 3 40.1106 27.228 43.3692
10966 3 40.1649 27.2589 46.6319
10775 3 46.5486 24.0887 43.4541
10969 3 44.8784 25.6526 45.0542
10952 3 49.7753 24.1548 46.6141
10788 3 56.1025 27.2103 43.3738
10976 3 56.2204 27.2175 46.5787
10985 3 38.4506 28.9247 44.9223
10794 3 43.3375 30.5789 43.388
10986 3 40.057 30.5474 46.635
10988 3 43.3203 30.4924 46.6219
10989 3 45.0219 28.9097 45.0159
10992 3 49.7114 30.3486 46.5628
10797 3 52.9666 30.4567 43.2996
10994 3 52.9659 30.4814 46.7263
10995 3 54.5298 28.8235 45.0137
10798 3 56.255 30.4532 43.3627
11049 3 44.8887 6.46253 48.1457
11051 3 48.2548 6.47948 48.1465
11057 3 57.7835 6.43046 48.2084
11042 3 33.6058 7.99194 49.7489
11062 3 33.6868 11.2969 49.7217
11063 3 35.3133 9.59385 48.1633
11046 3 40.1327 8.03887 49.657
11066 3 40.0546 11.2672 49.7547
11068 3 43.3235 11.2394 49.7107
11072 3 49.8942 11.2649 49.7556
11073 3 51.432 9.65925 48.151
11056 3 56.2274 8.11935 49.7859
11076 3 56.1745 11.325 49.8048
11082 3 33.7035 14.5062 49.6742
11088 3 43.2773 14.5533 49.7724
11102 3 33.7069 17.7152 49.6451
11105 3 38.5164 16.0954 48.1386
11125 3 38.514 19.3428 48.0257
11106 3 40.133 17.7059 49.7613
11133 3 51.4163 19.1877 48.0834
11143 3 35.255 22.4371 48.149
11124 3 36.9016 20.8036 49.819
11126 3 40.1376 20.964 49.795
11149 3 44.9924 22.4638 48.1728
11134 3 53.0496 20.9451 49.7474
11144 3 36.9987 24.0105 49.8444
11164 3 36.9342 27.244 49.702
11175 3 54.5774 25.5954 48.1915
11186 3 40.0944 30.5866 49.8032
11192 3 49.7875 30.3515 49.8779
11243 3 35.2634 6.44636 51.388
11245 3 38.5435 6.42381 51.2838
11445 3 38.5411 6.45067 54.5602
11255 3 54.6544 6.43932 51.3642
11263 3 35.3572 9.64966 51.3589
11463 3 35.2688 9.67587 54.5433
11248 3 43.3907 8.03103 52.9655
11266 3 40.0158 11.2677 52.9935
11267 3 41.7192 9.66598 51.355
11467 3 41.6982 9.62221 54.6329
11270 3 46.6215 11.2888 52.9944
11271 3 48.2169 9.64068 51.3617
11473 3 51.3182 9.65688 54.6288
11254 3 52.9346 8.0499 52.9366
11274 3 52.9857 11.2392 52.892
11282 3 33.7667 14.3757 52.9878
11284 3 36.9478 14.3725 52.99
11286 3 40.1251 14.4628 53.0383
11289 3 44.9445 12.9229 51.3924
11489 3 44.9376 12.869 54.6353
11291 3 48.2705 12.9106 51.352
11293 3 51.4447 12.95 51.3196
11493 3 51.3418 12.905 54.4771
11495 3 54.6095 12.9908 54.4238
11297 3 57.7766 13.0378 51.4547
11303 3 35.3075 16.1516 51.3898
11501 3 32.1284 16.0815 54.5691
11503 3 35.4018 16.118 54.568
11305 3 38.4849 16.1019 51.3793
11525 3 38.4489 19.2898 54.5794
11306 3 40.1778 17.6458 53.0348
11327 3 41.7521 19.2781 51.3714
11509 3 44.8913 16.0472 54.5511
11529 3 44.9902 19.2491 54.5487
11311 3 48.2122 16.1042 51.349
11533 3 51.3292 19.2386 54.6043
11314 3 52.9275 17.6353 52.8188
11316 3 56.2617 17.6827 52.9526
11341 3 32.2101 22.372 51.3334
11545 3 38.4023 22.4338 54.5597
11326 3 40.1576 20.9297 52.9917
11328 3 43.3337 20.8979 52.9599
11549 3 44.91 22.5007 54.5337
11332 3 49.7277 20.8235 52.9154
11351 3 48.1236 22.5298 51.2661
11334 3 53.0205 20.9546 52.9401
11361 3 32.1215 25.6803 51.2943
11362 3 33.71 27.284 52.9677
11563 3 35.331 25.6501 54.5875
11565 3 38.4895 25.6461 54.5212
11350 3 46.5447 24.1294 52.9419
11370 3 46.5644 27.2325 52.8652
11573 3 51.361 25.5943 54.533
11374 3 52.9437 27.282 52.946
11583 3 35.3538 28.8604 54.5465
11385 3 38.4999 28.8653 51.3518
11585 3 38.5428 28.824 54.5203
11387 3 41.7831 28.7859 51.2825
11388 3 43.3357 30.4726 52.9573
11390 3 46.549 30.4871 52.9221
11589 3 44.9355 28.8026 54.5708
11591 3 48.185 28.8652 54.5671
11395 3 54.6519 28.8448 51.3528
11444 3 36.8568 8.0366 56.1602
11464 3 36.9368 11.2903 56.1882
11448 3 43.3756 8.04695 56.2279
11466 3 40.1101 11.331 56.195
11450 3 46.6625 7.96292 56.1606
11671 3 48.1894 9.72045 57.7496
11675 3 54.4845 9.64664 57.7693
11476 3 56.179 11.2719 56.1037
11484 3 36.9736 14.3682 56.1815
11492 3 49.7055 14.5038 56.1158
11693 3 51.3454 12.7957 57.776
11494 3 52.9572 14.58 56.1957
11496 3 56.1646 14.5943 56.1628
11502 3 33.7879 17.773 56.1589
11506 3 40.1427 17.678 56.1601
11729 3 44.8643 19.2414 57.7428
11731 3 48.2701 19.2145 57.6746
11522 3 33.7969 20.8694 56.1744
11741 3 32.1029 22.5507 57.7765
11751 3 48.2084 22.4495 57.7603
11534 3 52.9247 20.8738 56.2112
11763 3 35.2813 25.661 57.7757
11546 3 40.2218 24.0375 56.1352
11566 3 40.2407 27.2441 56.1171
11550 3 46.5671 24.088 56.1873
11570 3 46.6023 27.1262 56.1685
11773 3 51.4138 25.5963 57.7815
11556 3 56.1875 24.0626 56.1309
11576 3 56.1503 27.2223 56.1558
11584 3 36.9328 30.5239 56.1828
11785 3 38.5229 28.8222 57.7774
11586 3 40.2117 30.4739 56.1287
11793 3 51.3386 28.8029 57.691
11596 3 56.154 30.3932 56.069
14803 3 35.3802 32.0148 44.9127
14811 3 48.0707 32.0574 44.9045
15003 3 35.3762 32.0591 48.2063
15009 3 44.9067 32.0324 48.2684
15011 3 48.1113 32.0047 48.2476
15615 3 54.5379 32.0062 57.6795
12425 3 38.5593 35.255 6.53663
12410 3 46.444 33.5908 7.98475
12429 3 44.8798 35.3833 6.44639
12433 3 51.366 35.221 6.42197
12416 3 56.2564 33.6662 7.94445
12422 3 33.6665 37.0111 8.00883
12445 3 38.5572 38.584 6.45593
12444 3 36.8287 40.2139 7.97044
12452 3 49.6808 40.1387 7.96632
12456 3 56.1547 40.1628 7.90556
12486 3 40.0777 46.4313 7.99575
12493 3 51.2552 44.9473 6.49654
12494 3 53.0195 46.5861 7.98538
12496 3 56.2229 46.558 8.00767
12503 3 35.2415 48.1777 6.42611
12510 3 46.503 49.7098 8.00991
12512 3 49.6389 49.7981 8.10499
12522 3 33.6482 53.073 8.0837
12526 3 40.0372 53.043 8.06085
12530 3 46.581 52.932 7.98911
12549 3 44.9541 54.5872 6.43826
12553 3 51.3184 54.5906 6.51099
12555 3 54.5348 54.676 6.50661
12542 3 33.6975 56.1819 8.05506
12552 3 49.7188 56.318 8.00169
12603 3 35.3874 32.132 9.57452
12623 3 35.3668 35.3592 9.65059
12604 3 37.0164 33.6802 11.2596
12610 3 46.4557 33.6118 11.2004
12629 3 44.8485 35.379 9.57968
12631 3 48.138 35.3675 9.54436
12614 3 52.9582 33.6974 11.0704
12635 3 54.609 35.3316 9.5339
12622 3 33.6007 36.9854 11.2966
12645 3 38.6155 38.5798 9.65458
12649 3 44.8749 38.585 9.57986
12653 3 51.3508 38.5398 9.59595
12634 3 52.9799 36.9731 11.2379
12657 3 57.7379 38.5532 9.61472
12642 3 33.6994 40.147 11.2098
12666 3 40.128 43.3999 11.1545
12667 3 41.7456 41.6847 9.54342
12669 3 44.9053 41.7634 9.52014
12670 3 46.5335 43.4078 11.1298
12671 3 48.1386 41.8389 9.53851
12673 3 51.3222 41.8544 9.551
12654 3 52.9009 40.1711 11.2845
12674 3 52.9013 43.3917 11.3027
12675 3 54.567 41.7997 9.56375
12681 3 32.1871 44.9688 9.57193
12682 3 33.7265 46.5728 11.3025
12686 3 40.2074 46.55 11.2913
12694 3 52.915 46.5116 11.3555
12695 3 54.6026 44.9285 9.64081
12701 3 32.1054 48.2271 9.5912
12702 3 33.726 49.8409 11.3457
12703 3 35.3425 48.1316 9.5737
12723 3 35.3597 51.4168 9.61942
12704 3 36.9101 49.7854 11.3565
12706 3 40.0292 49.7736 11.276
12708 3 43.334 49.651 11.2172
12713 3 51.3116 48.1228 9.63746
12714 3 52.9247 49.8091 11.3332
12735 3 54.4939 51.442 9.67094
12716 3 56.1387 49.8344 11.2974
12722 3 33.67 53.0102 11.3609
12743 3 35.3514 54.626 9.67724
12724 3 36.9584 53.0405 11.3833
12728 3 43.2501 53.0896 11.1999
12730 3 46.5727 52.9632 11.2062
12732 3 49.8103 52.95 11.1984
12751 3 48.1777 54.6424 9.6113
12736 3 56.1533 53.088 11.2907
12744 3 37.0028 56.1837 11.3025
12765 3 38.5608 57.7764 9.66644
12804 3 36.9113 33.6207 14.4257
12825 3 38.611 35.4019 12.8409
13025 3 38.5301 35.2869 16.0258
13027 3 41.6742 35.2898 15.9632
12812 3 49.7363 33.6924 14.462
12831 3 48.1701 35.3738 12.7953
12833 3 51.3546 35.3765 12.8608
13031 3 48.2335 35.4095 16.0346
12835 3 54.6032 35.2412 12.891
12817 3 57.7617 32.1483 12.8661
13356 3 56.1072 56.1671 20.8299
12843 3 35.3745 38.5757 12.8547
13043 3 35.3245 38.5493 15.9622
12845 3 38.5332 38.5572 12.7876
12828 3 43.3364 36.9972 14.3915
13051 3 48.1942 38.5988 16.0251
13053 3 51.3888 38.4941 16.0571
12862 3 33.7283 43.3378 14.5086
12865 3 38.4793 41.7635 12.811
12867 3 41.7233 41.7727 12.7787
12850 3 46.516 40.1647 14.2814
12870 3 46.4618 43.3309 14.373
12872 3 49.825 43.396 14.3979
13071 3 48.1371 41.7571 16.0511
13073 3 51.3593 41.7406 16.0791
12854 3 52.9838 40.1547 14.3841
12874 3 52.9614 43.3619 14.3931
12883 3 35.4092 44.9382 12.9107
12885 3 38.4831 44.9867 12.8935
12888 3 43.2638 46.664 14.3165
13087 3 41.7158 44.8978 15.9666
12889 3 44.9107 45.0405 12.7205
12890 3 46.5809 46.6765 14.4203
12891 3 48.1827 45.0212 12.7731
12896 3 56.1187 46.6101 14.4942
13101 3 32.152 48.244 16.0065
12927 3 41.661 51.3986 12.7879
12910 3 46.4996 49.723 14.4613
12929 3 44.9359 51.3363 12.7625
12931 3 48.2023 51.3045 12.8617
13113 3 51.4339 48.1712 15.8912
13131 3 48.1597 51.4247 16.0619
12917 3 57.7604 48.1377 12.881
13141 3 32.1336 54.6164 16.0318
13143 3 35.3202 54.5471 15.9413
13145 3 38.4592 54.6495 16.0187
12926 3 40.0603 52.9652 14.4326
13147 3 41.7012 54.61 16.024
12930 3 46.4524 52.9699 14.4974
12949 3 44.8777 54.6768 12.8415
12951 3 48.2334 54.5743 12.8275
13153 3 51.3813 54.6109 15.9976
12936 3 56.1943 53.088 14.476
12963 3 35.2707 57.7623 12.8785
13167 3 41.6116 57.7076 16.0112
13169 3 44.8862 57.7284 15.9845
12973 3 51.3809 57.6835 12.743
12977 3 57.7789 57.7621 12.6905
13201 3 32.1061 32.1663 19.2965
13203 3 35.3212 32.2131 19.2735
13221 3 32.1307 35.2857 19.2301
13223 3 35.388 35.2795 19.2115
13008 3 43.4033 33.7169 17.548
13207 3 41.697 32.151 19.1997
13227 3 41.7146 35.3072 19.2285
13210 3 46.6081 33.6915 20.9582
13229 3 44.9887 35.305 19.2634
13213 3 51.3508 32.1147 19.3247
13014 3 53.0255 33.7812 17.6834
13214 3 52.9653 33.7556 20.8457
13022 3 33.6617 36.9709 17.5884
13222 3 33.7688 36.9375 20.894
13243 3 35.3087 38.6055 19.254
13245 3 38.5837 38.6312 19.29
13026 3 40.123 36.9637 17.6519
13228 3 43.3456 37.041 20.8675
13030 3 46.4992 36.9484 17.6055
13232 3 49.8009 37.0236 20.835
13255 3 54.4899 38.5684 19.2237
13036 3 56.1207 36.8597 17.6778
13236 3 56.1907 36.9788 20.8797
13042 3 33.6813 40.2155 17.5782
13261 3 32.1403 41.8394 19.3068
13044 3 36.9504 40.2288 17.5462
13244 3 36.9378 40.1901 20.946
13264 3 36.894 43.3573 20.9192
13046 3 40.0983 40.1858 17.511
13068 3 43.4234 43.3287 17.7065
13266 3 40.122 43.3375 20.9544
13267 3 41.734 41.7017 19.29
13052 3 49.7766 40.1551 17.75
13074 3 52.9759 43.4227 17.6611
13076 3 56.1415 43.2693 17.6549
13256 3 56.1719 40.1922 20.9529
13283 3 35.2885 44.8995 19.1548
13084 3 36.9223 46.6382 17.5631
13284 3 36.8786 46.6022 20.9296
13285 3 38.4945 44.9451 19.2183
13086 3 40.0619 46.6095 17.5519
13287 3 41.7547 44.9605 19.3088
13288 3 43.4206 46.5759 20.9963
13092 3 49.7856 46.5339 17.5802
13292 3 49.7544 46.6143 20.9133
13096 3 56.1601 46.6486 17.6152
13297 3 57.6981 44.9621 19.3281
13301 3 32.1539 48.1823 19.2256
13302 3 33.7128 49.7648 20.9283
13321 3 32.1415 51.4082 19.213
13323 3 35.3632 51.3209 19.1657
13106 3 40.0347 49.8431 17.5448
13308 3 43.3032 49.8323 20.8814
13112 3 49.7823 49.77 17.5681
13311 3 48.1116 48.1939 19.2439
13331 3 48.0669 51.3708 19.1915
13333 3 51.3972 51.3271 19.2447
13315 3 54.4954 48.1749 19.2393
13335 3 54.657 51.3807 19.2156
13116 3 56.2632 49.7577 17.5941
13316 3 56.2622 49.7224 20.9018
13343 3 35.2942 54.548 19.2376
13324 3 36.9285 52.9599 20.8986
13345 3 38.4786 54.5994 19.2386
13126 3 40.1168 52.92 17.6456
13326 3 40.1535 52.9352 20.8456
13330 3 46.4708 52.9837 20.8444
13332 3 49.7037 52.9449 20.9376
13351 3 48.1526 54.5439 19.1948
13353 3 51.3265 54.6455 19.285
13134 3 53.0094 52.9826 17.5886
13334 3 53.0025 53.0215 20.8508
13142 3 33.7464 56.2492 17.6423
13148 3 43.284 56.1728 17.7804
13150 3 46.515 56.1814 17.6655
13350 3 46.5405 56.2094 20.8342
13405 3 38.4304 32.1453 22.5279
13425 3 38.4803 35.3801 22.4839
13408 3 43.4579 33.7314 24.086
13427 3 41.7174 35.3777 22.5139
13431 3 48.2778 35.3222 22.533
13414 3 52.9295 33.6951 24.0952
13435 3 54.5769 35.3714 22.4654
13416 3 56.2536 33.7031 24.0453
13445 3 38.6 38.5734 22.5348
13430 3 46.5979 36.9587 24.1307
13449 3 44.9935 38.6333 22.5704
13442 3 33.7336 40.2195 24.083
13464 3 36.8169 43.2859 24.1117
13467 3 41.8112 41.7449 22.5902
13469 3 44.9874 41.7174 22.5347
13470 3 46.5228 43.3957 24.202
13452 3 49.7151 40.1496 24.0782
13474 3 52.9579 43.3513 24.0151
13482 3 33.727 46.4601 23.9932
13494 3 52.9596 46.6013 24.0022
13495 3 54.6895 44.9761 22.3946
13523 3 35.3192 51.3933 22.5586
13504 3 36.9919 49.7681 24.0857
13529 3 44.8908 51.3481 22.5438
13512 3 49.6805 49.7346 24.1616
13535 3 54.5814 51.4228 22.5361
13516 3 56.2228 49.7675 24.0624
13543 3 35.3338 54.6229 22.5784
13545 3 38.47 54.6292 22.542
13526 3 40.1814 52.8818 24.11
13547 3 41.7176 54.5915 22.4434
13530 3 46.5162 52.9762 24.1197
13549 3 44.8452 54.5603 22.445
13553 3 51.3078 54.6344 22.503
13548 3 43.2449 56.1755 24.1314
13550 3 46.5838 56.1873 24.043
13554 3 52.9973 56.2294 24.0253
13556 3 56.206 56.181 24.0332
13623 3 35.4214 35.352 25.7178
13625 3 38.495 35.366 25.6622
13606 3 40.154 33.7346 27.3794
13607 3 41.7687 32.1037 25.7218
13608 3 43.4213 33.6601 27.3474
13629 3 45.0532 35.3709 25.7492
13829 3 44.984 35.3877 28.9658
13611 3 48.1501 32.1362 25.7062
13633 3 51.2792 35.388 25.6104
13635 3 54.5982 35.4221 25.6322
13616 3 56.18 33.7559 27.3299
13643 3 35.3395 38.5375 25.7026
13841 3 32.1541 38.664 28.8637
13645 3 38.5187 38.5276 25.656
13626 3 40.1852 36.9312 27.2914
13628 3 43.4018 37.0054 27.2811
13847 3 41.8166 38.596 28.9224
13653 3 51.3761 38.5848 25.6527
13634 3 52.9325 36.9839 27.339
13855 3 54.5423 38.5996 29.0601
13636 3 56.2284 37.0245 27.2722
13662 3 33.7562 43.3011 27.301
13644 3 36.9054 40.2203 27.339
13664 3 36.8571 43.3562 27.3639
13646 3 40.2394 40.1817 27.2197
13867 3 41.8613 41.8778 28.8702
13650 3 46.5334 40.0975 27.3468
13670 3 46.4605 43.3676 27.3164
13672 3 49.8299 43.3995 27.3176
13871 3 48.207 41.7076 28.9085
13656 3 56.1497 40.1372 27.1974
13676 3 56.1486 43.3581 27.28
13682 3 33.7369 46.5152 27.3154
13684 3 36.9342 46.5354 27.3544
13685 3 38.5768 44.9232 25.6845
13885 3 38.6701 44.943 28.9384
13688 3 43.3337 46.5648 27.328
13891 3 48.1212 45.0853 28.8986
13696 3 56.1023 46.6137 27.3907
13697 3 57.7631 44.9944 25.5565
13702 3 33.6593 49.86 27.226
13703 3 35.3249 48.1395 25.6597
13903 3 35.2959 48.1961 28.9892
13705 3 38.6246 48.1064 25.6462
13925 3 38.5523 51.3796 28.9557
13706 3 40.1506 49.7947 27.3312
13933 3 51.3638 51.2221 28.8833
13715 3 54.5165 48.1998 25.6818
13935 3 54.5922 51.3935 28.9645
13943 3 35.3346 54.5915 28.908
13724 3 36.9648 52.9583 27.2601
13751 3 48.2053 54.541 25.7368
13951 3 48.117 54.4776 28.9431
13953 3 51.3587 54.4934 28.9819
13755 3 54.6159 54.4677 25.6669
13746 3 40.0497 56.0904 27.2664
13967 3 41.6834 57.7674 28.8817
13750 3 46.4959 56.1437 27.3365
13754 3 52.9125 56.1538 27.3361
13756 3 56.2352 56.1199 27.3228
14021 3 32.2132 35.3331 32.1329
14004 3 36.8514 33.7875 33.6977
14005 3 38.5825 32.1323 32.1102
13810 3 46.6076 33.7813 30.5272
14029 3 44.9478 35.3428 32.1493
14031 3 48.1901 35.4374 32.1537
13814 3 52.9847 33.7518 30.572
14016 3 56.1367 33.7265 33.6354
14043 3 35.3301 38.4457 32.132
13826 3 40.1131 36.8763 30.5326
14026 3 40.1146 36.9961 33.6914
14053 3 51.4034 38.5101 32.0217
13836 3 56.2264 36.9251 30.6422
14042 3 33.7582 40.1522 33.7933
14061 3 32.2087 41.7647 32.0302
14063 3 35.3431 41.774 32.1091
13844 3 36.9587 40.1271 30.4763
14044 3 36.9841 40.0918 33.7983
14065 3 38.571 41.8089 32.1483
13846 3 40.212 40.1949 30.5769
14048 3 43.3717 40.1316 33.7325
13850 3 46.5566 40.0389 30.5144
13870 3 46.5239 43.3663 30.4911
14069 3 44.9292 41.7496 32.0976
14070 3 46.591 43.3371 33.6238
13872 3 49.818 43.3185 30.5195
14052 3 49.8191 40.0833 33.6773
13874 3 52.9354 43.3806 30.5078
13876 3 56.0908 43.3974 30.5754
14076 3 56.0456 43.35 33.7578
14081 3 32.1168 44.979 32.0868
14082 3 33.7194 46.5789 33.7748
14083 3 35.3344 44.9472 32.0626
14086 3 40.0969 46.4936 33.5707
14088 3 43.3189 46.5252 33.5356
14094 3 52.925 46.4661 33.6991
14097 3 57.7772 45.0748 32.1579
14105 3 38.5045 48.1901 31.9827
14108 3 43.2984 49.7936 33.6002
14109 3 45.0006 48.1834 31.9801
14129 3 44.9333 51.3531 31.948
14116 3 56.2032 49.6769 33.628
13922 3 33.6104 52.9556 30.5031
14122 3 33.6063 52.9138 33.6776
14143 3 35.3166 54.5548 32.0397
14124 3 36.9601 52.8486 33.6571
14147 3 41.6497 54.5327 32.139
14130 3 46.4729 52.8816 33.7084
13932 3 49.7132 52.786 30.5676
14151 3 48.1283 54.5496 32.121
14153 3 51.3087 54.5394 32.0824
14134 3 52.9611 52.8711 33.604
14144 3 36.8815 56.1636 33.6883
14165 3 38.5477 57.7078 32.0313
13948 3 43.3558 56.0104 30.458
14167 3 41.7295 57.702 32.0982
14169 3 44.9274 57.7288 32.2015
14171 3 48.0752 57.7766 32.0649
14154 3 52.8649 56.2729 33.7224
14202 3 33.6492 33.7008 36.91
14221 3 32.1089 35.3622 35.318
14204 3 36.8619 33.7787 36.8922
14205 3 38.5842 32.1385 35.243
14206 3 40.199 33.7384 36.9212
14207 3 41.8366 32.1156 35.2543
14227 3 41.7754 35.3769 35.2432
14229 3 45.0329 35.372 35.2845
14213 3 51.313 32.2181 35.3244
14231 3 48.1599 35.3811 35.3295
14214 3 52.8815 33.7666 37.006
14215 3 54.5473 32.1572 35.308
14222 3 33.7748 37.0373 36.9686
14224 3 36.9175 37.0446 36.8999
14226 3 40.0852 37.0292 36.9431
14234 3 52.9302 36.9312 36.8599
14263 3 35.3415 41.7428 35.4587
14267 3 41.6468 41.7535 35.3087
14270 3 46.5134 43.3118 36.8879
14271 3 48.1793 41.6564 35.2615
14277 3 57.7546 41.7232 35.2544
14283 3 35.3111 44.8737 35.3837
14284 3 36.9247 46.4756 36.9794
14286 3 40.0905 46.4772 36.9491
14288 3 43.3212 46.5707 36.9843
14289 3 44.9238 44.9474 35.2427
14291 3 48.2282 44.9856 35.2348
14323 3 35.2695 51.2712 35.3681
14305 3 38.479 48.145 35.3297
14306 3 40.1052 49.7926 36.9306
14307 3 41.7147 48.1338 35.263
14308 3 43.3619 49.7787 36.9644
14309 3 44.9882 48.1896 35.2625
14311 3 48.1097 48.1269 35.2288
14315 3 54.5902 48.081 35.3134
14335 3 54.5293 51.2115 35.268
14343 3 35.2712 54.4617 35.3472
14345 3 38.5364 54.5327 35.2795
14326 3 40.1328 52.895 36.925
14328 3 43.3966 52.9613 37.0087
14347 3 41.8127 54.5683 35.2498
14332 3 49.6633 52.8199 36.8145
14351 3 48.0876 54.5494 35.2746
14353 3 51.2494 54.5287 35.2741
14334 3 52.9721 52.93 36.8905
14355 3 54.5618 54.599 35.2231
14336 3 56.1925 52.944 36.8612
14342 3 33.6266 56.1134 36.9575
14344 3 36.8729 56.1511 36.9655
14346 3 40.1802 56.1961 36.9385
14371 3 47.9902 57.7716 35.3334
14354 3 52.8575 56.2766 36.8751
14356 3 56.1284 56.2527 36.8357
14612 3 35.3512 35.4327 41.7019
14404 3 36.8742 33.6944 40.1735
14405 3 38.547 32.1466 38.52
14604 3 41.7373 32.2531 41.7
14410 3 46.5978 33.7996 40.1332
14605 3 44.9842 32.1577 41.7248
14411 3 48.0868 32.1171 38.4952
14412 3 49.7533 33.7324 40.1264
14416 3 56.2167 33.7439 40.189
14422 3 33.6201 37.0745 40.1229
14622 3 35.3295 38.6241 41.6864
14426 3 40.0565 36.9341 40.1375
14624 3 41.8284 38.4779 41.6876
14625 3 44.9479 38.3764 41.7121
14453 3 51.3226 38.5584 38.5373
14626 3 48.1802 38.3626 41.6551
14455 3 54.592 38.612 38.424
14457 3 57.7203 38.5531 38.4629
14631 3 32.1792 41.7663 41.6998
14633 3 38.4053 41.7354 41.6316
14446 3 40.0187 40.0927 40.0536
14466 3 40.0191 43.344 40.0361
14634 3 41.7614 41.7011 41.6411
14450 3 46.568 40.1378 40.1557
14471 3 48.2232 41.7275 38.5217
14473 3 51.4603 41.8315 38.4538
14637 3 51.3383 41.7657 41.6822
14454 3 53.0205 40.1585 40.1489
14476 3 56.1257 43.3957 40.0939
14477 3 57.6865 41.7262 38.4354
14484 3 36.8137 46.4726 40.1703
14486 3 40.1193 46.5433 40.1582
14490 3 46.4732 46.4797 40.0538
14492 3 49.7667 46.4568 40.0497
14495 3 54.4982 44.9544 38.4146
14503 3 35.2486 48.1842 38.5255
14523 3 35.2555 51.3319 38.4797
14504 3 36.8553 49.7952 40.2278
14508 3 43.3075 49.8091 40.066
14510 3 46.4964 49.79 40.0462
14655 3 44.8857 48.1711 41.71
14511 3 48.0952 48.0753 38.3508
14513 3 51.4484 48.0655 38.3907
14668 3 54.5753 51.2381 41.765
14517 3 57.7394 48.1046 38.4417
14522 3 33.6731 52.9805 40.1201
14545 3 38.466 54.4818 38.532
14526 3 40.1427 52.8534 40.0764
14674 3 41.7027 54.5173 41.6812
14675 3 44.9168 54.5279 41.5639
14532 3 49.6327 52.9039 40.0889
14551 3 48.0527 54.5395 38.483
14677 3 51.3241 54.5848 41.648
14534 3 52.9619 52.8975 40.0408
14678 3 54.5041 54.6292 41.6683
14536 3 56.1766 52.8685 40.1149
14544 3 36.7961 56.0615 40.1271
14546 3 40.17 56.2575 40.0342
14569 3 44.8919 57.7816 38.4071
14685 3 44.928 57.7786 41.646
14701 3 33.7367 33.7489 43.331
14802 3 33.7166 33.7488 46.544
14702 3 36.9493 33.7458 43.3171
14825 3 38.5842 35.3707 45.0157
14810 3 46.5057 33.7238 46.5311
14814 3 52.9594 33.7185 46.5581
14815 3 54.6192 32.1153 44.9464
14711 3 33.6636 36.9725 43.3132
14841 3 32.1098 38.5958 44.9671
14824 3 36.8435 36.973 46.5314
14713 3 40.1124 36.93 43.2939
14828 3 43.2904 36.9164 46.5125
14830 3 46.5004 36.9057 46.4546
14855 3 54.5825 38.5417 44.8817
14836 3 56.1993 36.844 46.4756
14863 3 35.2342 41.7155 45.0028
14722 3 36.9122 40.1166 43.3245
14732 3 36.8433 43.3867 43.2531
14865 3 38.4555 41.7463 44.989
14723 3 40.1629 40.1032 43.3334
14733 3 40.1301 43.3923 43.278
14734 3 43.3326 43.3222 43.3308
14846 3 40.1979 40.1523 46.5143
14725 3 46.5072 40.0786 43.3382
14869 3 44.9448 41.7191 44.9952
14726 3 49.7285 40.1123 43.3497
14736 3 49.7463 43.3531 43.3591
14737 3 52.986 43.3155 43.3918
14854 3 52.9666 40.2095 46.503
14728 3 56.2152 40.1593 43.2942
14738 3 56.105 43.3444 43.3636
14882 3 33.6133 46.4312 46.5928
14885 3 38.4983 45.0435 44.8728
14744 3 43.2024 46.541 43.2647
14746 3 49.7728 46.5575 43.3187
14747 3 52.9134 46.5733 43.3172
14748 3 56.1936 46.5573 43.228
14896 3 56.2309 46.5309 46.598
14904 3 36.8122 49.7484 46.4286
14925 3 38.4675 51.3966 44.8228
14906 3 40.0962 49.7261 46.4534
14927 3 41.727 51.2949 44.8381
14755 3 46.5582 49.8022 43.3241
14909 3 44.8499 48.1201 44.915
14910 3 46.4351 49.737 46.5835
14911 3 48.1638 48.135 45.0263
14915 3 54.6113 48.2067 44.9522
14935 3 54.5682 51.2891 44.9968
14764 3 43.3758 52.9196 43.3224
14765 3 46.5166 52.8798 43.2845
14930 3 46.3895 52.8841 46.4997
14766 3 49.6826 52.8474 43.2901
14932 3 49.791 52.9195 46.6313
14951 3 48.1256 54.5172 44.9307
14953 3 51.3683 54.5652 44.951
14955 3 54.5041 54.5783 44.9467
14772 3 36.7873 56.0503 43.3855
14773 3 40.1044 56.2055 43.4251
14774 3 43.2581 56.1582 43.3178
14948 3 43.1638 56.068 46.4954
14775 3 46.5483 56.1502 43.2334
14950 3 46.4867 56.1446 46.5013
14776 3 49.6529 56.2098 43.2439
14973 3 51.4521 57.7428 44.8934
14778 3 56.1492 56.2452 43.2888
15002 3 33.6513 33.7389 49.7215
15023 3 35.3057 35.3783 48.1723
15004 3 37.0185 33.71 49.7417
15010 3 46.474 33.7232 49.9119
15029 3 44.8537 35.2658 48.1533
15035 3 54.6032 35.2691 48.2144
15016 3 56.2782 33.5675 49.7935
15024 3 36.9302 37.0527 49.8012
15045 3 38.5319 38.6073 48.1305
15026 3 40.2255 36.9557 49.7401
15030 3 46.3994 36.8866 49.7746
15051 3 48.1295 38.502 48.1142
15053 3 51.3217 38.4147 48.071
15055 3 54.6239 38.5339 48.1307
15036 3 56.3242 36.8964 49.7988
15062 3 33.6664 43.2799 49.7747
15048 3 43.2577 40.0735 49.7659
15068 3 43.2159 43.3452 49.7428
15073 3 51.2919 41.7839 48.1195
15076 3 56.2008 43.3977 49.5922
15082 3 33.6341 46.53 49.7631
15084 3 36.9545 46.5233 49.7887
15085 3 38.5284 44.7573 48.1861
15090 3 46.5262 46.5546 49.6444
15103 3 35.2541 48.1417 48.1313
15104 3 36.9153 49.8246 49.785
15105 3 38.4921 48.1259 48.0759
15107 3 41.6755 48.0945 48.0597
15108 3 43.3369 49.7421 49.6959
15127 3 41.6749 51.4126 48.1326
15113 3 51.2585 48.114 48.1753
15131 3 48.1748 51.2645 48.2148
15114 3 52.9023 49.7589 49.8304
15115 3 54.5267 48.1933 48.0957
15135 3 54.515 51.3638 48.1604
15116 3 56.1872 49.7246 49.787
15130 3 46.4146 52.8925 49.7842
15136 3 56.1704 52.9922 49.7912
15161 3 32.131 57.744 48.0796
15146 3 39.9948 56.1396 49.5358
15148 3 43.2847 56.0682 49.6573
15152 3 49.8246 56.1359 49.7281
15154 3 52.9223 56.1562 49.788
15156 3 56.1376 56.1485 49.7312
15202 3 33.7392 33.6698 52.979
15223 3 35.317 35.3676 51.3746
15423 3 35.3377 35.3804 54.5062
15225 3 38.6163 35.3016 51.3665
15405 3 38.5674 32.1461 54.4947
15407 3 41.803 32.1799 54.4971
15411 3 48.1465 32.1387 54.541
15433 3 51.2958 35.2147 54.5443
15214 3 52.938 33.6141 52.9014
15216 3 56.209 33.5711 52.9585
15443 3 35.2686 38.616 54.413
15445 3 38.5966 38.5484 54.4807
15230 3 46.4523 36.71 53.007
15232 3 49.7033 36.8223 52.9708
15251 3 48.079 38.4315 51.3512
15253 3 51.3692 38.4854 51.3205
15234 3 52.9536 36.848 52.9419
15236 3 56.3151 36.9213 53.0049
15262 3 33.6704 43.2827 52.9867
15465 3 38.596 41.6757 54.4963
15248 3 43.2019 40.1021 52.9512
15250 3 46.3927 40.1102 52.9065
15270 3 46.4692 43.3864 52.8429
15469 3 44.7983 41.7847 54.5118
15252 3 49.7353 40.0592 52.975
15271 3 48.0834 41.7272 51.2587
15272 3 49.7351 43.4295 52.8884
15471 3 48.1107 41.7364 54.5489
15254 3 53.0267 40.1749 52.9802
15275 3 54.6961 41.8173 51.3592
15282 3 33.6795 46.5715 53.028
15283 3 35.3629 44.8729 51.3922
15290 3 46.5579 46.5956 52.8989
15491 3 48.1264 45.0337 54.5652
15495 3 54.6376 45.107 54.5388
15303 3 35.3281 48.1966 51.4678
15523 3 35.4038 51.3776 54.5088
15306 3 39.9897 49.7118 52.906
15327 3 41.6332 51.3898 51.2743
15527 3 41.5495 51.3272 54.6518
15310 3 46.54 49.7702 52.8218
15529 3 44.9372 51.3417 54.5661
15513 3 51.4646 48.1918 54.4789
15531 3 48.2212 51.3595 54.544
15315 3 54.6144 48.0801 51.4749
15322 3 33.7125 53.0049 52.9226
15345 3 38.3526 54.5411 51.3386
15326 3 40.0144 52.9462 52.9597
15347 3 41.6285 54.5218 51.297
15332 3 49.8508 52.9745 52.9015
15351 3 48.1465 54.5537 51.3578
15355 3 54.534 54.5713 51.4912
15361 3 32.1298 57.59 51.3578
15363 3 35.2583 57.5393 51.3078
15365 3 38.4426 57.6832 51.3714
15367 3 41.6246 57.7128 51.3601
15369 3 44.9367 57.7135 51.3297
15569 3 45.0147 57.6912 54.5884
15352 3 49.8983 56.1838 52.9762
15377 3 57.7401 57.7412 51.4381
15402 3 33.7506 33.7391 56.1887
15404 3 36.9779 33.7779 56.1909
15408 3 43.44 33.7552 56.1154
15414 3 52.9181 33.6387 56.1457
15416 3 56.1741 33.6881 56.1332
15422 3 33.7677 37.0059 56.2459
15645 3 38.5019 38.4819 57.7594
15649 3 44.89 38.3938 57.6794
15432 3 49.6339 36.8643 56.1644
15434 3 53.0047 36.8625 56.1261
15436 3 56.2085 36.91 56.1733
15442 3 33.6466 40.156 56.2322
15464 3 36.9005 43.3447 56.0557
15450 3 46.4745 40.0393 56.135
15470 3 46.4647 43.3929 56.1745
15472 3 49.7212 43.4076 56.2099
15454 3 52.9994 40.1301 56.0992
15474 3 53.1074 43.4079 56.1268
15675 3 54.6756 41.7514 57.7251
15482 3 33.6265 46.5751 56.1211
15683 3 35.2583 44.9004 57.7521
15689 3 44.8321 45.1104 57.7127
15492 3 49.8148 46.6469 56.1928
15502 3 33.7103 49.7712 56.1455
15508 3 43.2559 49.7534 56.2229
15512 3 49.8712 49.788 56.1945
15711 3 48.0659 48.2196 57.7633
15735 3 54.6536 51.39 57.735
15743 3 35.2814 54.5466 57.6928
15528 3 43.2371 52.9423 56.2364
15530 3 46.5821 52.9981 56.2086
15534 3 53.0294 53.0847 56.148
15548 3 43.2367 56.0857 56.1378
15552 3 49.8456 56.2082 56.1279
15556 3 56.2038 56.1669 56.1959
