ITEM: TIMESTEP
0
ITEM: NUMBER OF ATOMS
2830
ITEM: BOX BOUNDS pp pp pp
6.7011339712180984e-01 1.6626028660283973e+02
6.7011339712180984e-01 1.6626028660283973e+02
6.7011339712180984e-01 1.6626028660283973e+02
ITEM: ATOMS id type x y z
265328 2 12.5726 8.1619 7.41013
54394 2 19.124 8.1389 7.44825
54400 2 28.4802 8.19241 7.53479
54404 2 34.9429 8.07709 7.5155
54408 2 41.2189 8.20339 7.46621
212290 2 15.7545 11.3324 7.52905
1354 2 19.2236 11.3718 7.37177
1362 2 31.7189 11.3928 7.4546
1364 2 35.0278 11.45 7.40651
1366 2 38.1238 11.4241 7.43644
212316 2 15.8181 14.5024 7.48566
1382 2 22.1422 14.4642 7.36855
1386 2 28.5485 14.4313 7.34424
1388 2 31.801 14.5324 7.47975
1392 2 38.0331 14.5186 7.41308
1394 2 41.4126 14.5544 7.34859
212336 2 6.48543 17.6921 7.36889
212364 2 9.54148 20.798 7.35314
1406 2 19.0673 17.6564 7.47756
1432 2 19.0724 20.9477 7.54584
1408 2 22.2472 17.7605 7.49937
1436 2 25.2875 20.7671 7.43996
1412 2 28.5382 17.7596 7.38184
1777 2 30.1662 19.2543 8.91569
1440 2 31.6746 20.8846 7.49326
1420 2 41.2808 17.6594 7.44439
212392 2 12.7505 24.0179 7.42455
1460 2 22.1961 24.1795 7.3809
1462 2 25.3453 24.1231 7.43011
1466 2 31.756 24.0294 7.4837
212416 2 9.57816 27.3015 7.40739
1484 2 19.0947 27.2017 7.37177
1486 2 22.1508 27.1502 7.38227
1488 2 25.323 27.1767 7.41029
1490 2 28.6003 27.2551 7.42281
1496 2 38.2086 27.2669 7.34325
212468 2 9.43981 33.6314 7.52011
212470 2 12.795 33.4521 7.42389
1514 2 25.4036 30.5138 7.35699
1546 2 34.8141 33.6074 7.36547
1548 2 38.1488 33.6308 7.52001
1524 2 41.3293 30.3142 7.42156
212494 2 9.51884 36.8283 7.49848
212496 2 12.5816 36.8797 7.51418
1562 2 18.9918 36.797 7.49262
1564 2 22.2489 36.7599 7.35519
1566 2 25.4027 36.6811 7.3465
1568 2 28.5045 36.6638 7.46164
212524 2 15.7941 39.9473 7.40124
1590 2 22.2025 39.8401 7.39912
1602 2 41.1797 39.9624 7.3831
266003 2 11.1228 6.64486 12.2779
265666 2 12.6728 8.12515 10.7588
266005 2 14.2149 6.64009 12.2941
55069 2 17.5085 6.57791 12.324
54733 2 20.4919 6.52371 8.98473
54735 2 23.9317 6.65342 9.26223
54736 2 25.5237 8.16831 10.5792
54737 2 27.024 6.58016 9.07708
55077 2 30.1711 6.55458 12.1993
54743 2 36.4531 6.61674 9.02281
55081 2 36.6612 6.53962 12.3465
54745 2 39.8596 6.74728 9.07614
55083 2 39.7264 6.57668 12.3253
54746 2 41.1842 8.14618 10.7514
212623 2 7.85947 9.62803 8.95223
212987 2 7.89768 13.0062 12.135
212625 2 11.2708 9.67007 9.16116
212626 2 12.7547 11.3279 10.6239
212653 2 14.2989 12.8943 9.02445
212965 2 14.1435 9.71079 12.2215
212991 2 14.1788 12.8656 12.1587
1692 2 19.03 11.3152 10.6333
1694 2 22.2026 11.2921 10.6807
1696 2 25.4754 11.2481 10.6486
1697 2 26.9842 9.76405 9.11781
2035 2 26.952 9.77695 12.158
1698 2 28.5266 11.2294 10.6342
2041 2 36.5278 9.79947 12.1727
1702 2 35.019 11.3125 10.7224
2043 2 39.7875 9.72535 12.2068
2069 2 39.7438 13.0303 12.2292
212677 2 11.0761 16.082 9.13097
212650 2 9.59502 14.6559 10.6756
213015 2 11.1022 16.1292 12.2183
213017 2 14.3113 16.217 12.2671
2081 2 17.3648 16.1285 12.313
1720 2 22.2279 14.5217 10.6851
1724 2 28.5102 14.6157 10.6915
2087 2 27.0256 16.0984 12.138
1753 2 33.4075 16.088 9.01919
2091 2 33.3842 16.1259 12.3467
2093 2 36.5401 16.1603 12.2498
1732 2 41.3284 14.5163 10.7525
213039 2 7.94176 19.3063 12.191
212703 2 11.0578 19.3734 9.01187
212680 2 15.8517 17.6313 10.7119
1770 2 18.9603 20.8998 10.5996
1773 2 23.7672 19.2772 9.04712
1746 2 22.3516 17.8232 10.6151
2111 2 23.72 19.1771 12.2658
1772 2 22.3914 20.8383 10.6589
2115 2 30.1643 19.3263 12.2767
1754 2 34.9182 17.5633 10.7085
1756 2 38.1191 17.5919 10.6878
1782 2 38.107 20.9941 10.5993
213065 2 8.03862 22.5047 12.2453
212728 2 9.49107 24.0105 10.5988
212731 2 14.1913 22.5274 8.9786
1795 2 17.5511 22.3727 9.05232
213069 2 14.2509 22.4582 12.3081
2137 2 23.6921 22.5505 12.1437
1798 2 22.2176 24.0799 10.6513
1803 2 30.21 22.48 8.98921
2139 2 26.949 22.4555 12.2527
2143 2 33.3018 22.493 12.2572
1807 2 36.518 22.4472 9.08547
1809 2 39.7285 22.4605 9.14718
212779 2 7.85919 28.7776 9.01873
212781 2 11.0414 28.7616 8.95785
212757 2 14.2427 25.6242 8.9687
212783 2 14.3472 28.7328 8.95907
1847 2 17.524 28.6738 8.98554
212758 2 15.7943 27.2123 10.4045
1823 2 20.6542 25.6689 8.98709
1822 2 19.0822 27.2262 10.5192
1826 2 25.4165 27.207 10.6798
2165 2 26.8269 25.6217 12.2363
2167 2 30.2185 25.6759 12.2679
2191 2 26.9531 28.8826 12.1984
1831 2 33.2617 25.5558 9.00303
1857 2 33.2998 28.8704 9.05415
2195 2 33.2421 28.7776 12.2886
2197 2 36.5847 28.7075 12.2117
1834 2 38.0563 27.2456 10.6824
212809 2 14.2661 32.0771 9.00891
212810 2 15.8562 33.6475 10.6414
1875 2 20.6733 31.9518 9.06588
2213 2 20.6809 31.8983 12.1754
1850 2 22.081 30.4528 10.5739
1852 2 25.4833 30.3855 10.6141
1879 2 26.8289 31.8723 9.04241
1881 2 30.2138 32.0517 9.05047
2219 2 30.1275 31.9956 12.2116
1882 2 31.6263 33.5273 10.6648
1884 2 34.8546 33.6548 10.6719
1862 2 41.3227 30.3707 10.6598
212831 2 7.8841 35.1777 9.02522
213171 2 11.1014 35.1391 12.246
1899 2 17.4515 35.1368 9.02842
213173 2 14.3423 35.188 12.1933
2237 2 17.3823 35.163 12.2411
2239 2 20.6639 35.1583 12.1661
1905 2 27.0101 35.2643 8.99239
1906 2 28.5347 36.7474 10.6595
2247 2 33.3424 35.1497 12.1597
1910 2 34.8116 36.862 10.6354
1912 2 38.1099 36.7763 10.638
2251 2 39.645 35.2697 12.2072
212883 2 7.78596 41.6 9.05124
213221 2 7.95269 41.4946 12.3118
212859 2 11.0521 38.2638 8.95902
212885 2 11.115 41.622 9.06578
213197 2 11.0943 38.5013 12.2736
212887 2 14.3178 41.5058 9.06251
212862 2 15.7815 40.0451 10.5747
1927 2 20.6275 38.3269 8.92475
1926 2 19.077 39.9034 10.4927
2267 2 23.873 38.2865 12.2528
2271 2 30.1013 38.3465 12.2322
2295 2 27.0136 41.658 12.1359
1935 2 33.3402 38.314 9.12298
2273 2 33.4435 38.3487 12.2362
1937 2 36.5818 38.3381 9.20277
1938 2 38.0278 40.0414 10.6114
266341 2 11.0512 6.59758 15.4508
266002 2 9.57214 8.08664 13.817
266004 2 12.6977 8.08011 13.7738
266340 2 9.55992 8.08934 16.9523
55407 2 17.5557 6.5698 15.4281
55070 2 19.0403 8.07622 13.8404
55408 2 19.1078 8.13954 16.999
55411 2 23.7736 6.52191 15.4708
55416 2 31.7719 8.09007 17.1549
55419 2 36.6597 6.6639 15.4817
55418 2 35.0723 8.11315 16.9643
55420 2 38.1351 8.2043 16.9508
213327 2 11.0156 12.8837 15.4946
213300 2 9.53688 11.3386 16.9478
213302 2 12.7541 11.3479 16.9704
213329 2 14.2545 12.8586 15.4522
2393 2 17.5678 12.9469 15.2943
2369 2 20.5238 9.6625 15.3784
2030 2 19.0784 11.3302 13.9483
2397 2 23.7935 13.0305 15.5131
2379 2 36.6029 9.64361 15.5782
2381 2 39.6943 9.72053 15.5169
2407 2 39.7406 12.945 15.4328
213351 2 8.00504 16.1172 15.4565
213326 2 9.52681 14.4678 16.8982
2056 2 19.0143 14.6333 13.7895
2421 2 20.637 16.1338 15.4052
2396 2 22.2214 14.537 17.0461
2398 2 25.2896 14.5478 17.0694
2425 2 27.0163 16.039 15.6237
2400 2 28.6365 14.5191 17.0269
2064 2 31.8406 14.5624 13.8077
2066 2 34.9808 14.7274 13.7218
2433 2 39.7831 16.148 15.3934
213016 2 12.6558 17.5941 13.6945
213040 2 9.42335 20.8384 13.6867
213042 2 12.739 20.9613 13.7255
213352 2 9.482 17.6873 16.9098
213354 2 12.7436 17.682 16.9348
213378 2 9.49307 20.9764 17.0326
213380 2 12.7296 20.8597 16.9507
213018 2 15.8949 17.6592 13.7717
2445 2 17.3696 19.2863 15.372
213044 2 15.8237 20.9112 13.7666
213382 2 15.9027 20.824 16.9203
2420 2 19.0827 17.7484 16.9642
2084 2 22.1797 17.6355 13.8481
2451 2 26.9858 19.2935 15.4283
2426 2 28.4878 17.7617 17.0313
2455 2 33.3093 19.3183 15.4503
2454 2 31.7569 20.9131 16.9457
2457 2 36.5327 19.3022 15.5424
2430 2 34.9006 17.931 16.9113
2458 2 38.1197 20.8878 16.9456
2459 2 39.7702 19.3148 15.3883
2096 2 41.2463 17.7051 13.9338
2122 2 41.1918 20.8754 13.9254
213066 2 9.43195 24.0477 13.8128
213068 2 12.747 24.0216 13.7447
213406 2 12.6818 24.1433 17.0796
2473 2 20.526 22.4877 15.3423
2134 2 19.0079 23.9879 13.7908
2475 2 23.9019 22.4876 15.3908
2138 2 25.3473 24.0413 13.7946
2479 2 30.1316 22.4954 15.45
2478 2 28.5757 24.0733 16.9845
2144 2 34.8611 24.0677 13.8469
2146 2 38.1567 24.0159 13.9348
2485 2 39.6783 22.4703 15.3951
213455 2 7.81993 28.7249 15.3256
213457 2 11.1574 28.8642 15.3809
2497 2 17.4081 25.6459 15.3074
213096 2 15.9372 27.1871 13.9539
2523 2 17.2882 28.897 15.3768
2525 2 20.6124 28.8354 15.4189
2501 2 23.8352 25.5918 15.3013
2527 2 23.8211 28.7715 15.3973
2531 2 30.0592 28.8109 15.4282
2504 2 28.5605 27.2798 17.1078
2168 2 31.6791 27.2504 13.8125
2172 2 38.036 27.3104 13.8251
2508 2 34.938 27.1511 17.1163
2510 2 38.0576 27.1244 17.1438
213481 2 7.9974 32.0355 15.4602
213120 2 12.6256 30.3528 13.9294
213482 2 9.40954 33.4929 16.905
213484 2 12.742 33.5491 16.9921
213122 2 15.9404 30.3479 13.7661
213460 2 15.8703 30.3323 17.1101
2553 2 23.78 31.9503 15.4806
2192 2 28.5612 30.3619 13.81
2530 2 28.6864 30.3313 17.1176
2556 2 28.6159 33.5299 17.0691
2222 2 34.8416 33.756 13.7858
2536 2 38.1477 30.5593 17.0386
2560 2 34.8431 33.5483 17.1227
2563 2 39.6313 31.9663 15.4328
213508 2 9.61094 36.8983 16.9821
213511 2 14.3296 35.207 15.4027
213174 2 15.7916 36.6995 13.7479
213512 2 15.7826 36.7594 16.9216
2577 2 20.5845 35.2155 15.3964
2579 2 23.9287 35.3229 15.3515
2242 2 25.4195 36.8122 13.8778
2580 2 25.379 36.7775 17.0183
2582 2 28.5739 36.9087 17.0138
2584 2 31.8047 36.881 17.0637
2588 2 38.0561 36.8583 16.9902
2589 2 39.611 35.259 15.5147
213535 2 10.9918 38.3244 15.3933
213196 2 9.62561 39.9426 13.7903
213561 2 11.0124 41.6436 15.3898
213537 2 14.4046 38.2539 15.4271
2627 2 17.4469 41.5829 15.4635
2264 2 18.9328 40.0433 13.9185
2606 2 25.4802 39.9459 17.0432
2607 2 26.9788 38.3843 15.4946
2635 2 30.2336 41.4605 15.4655
2611 2 33.2749 38.4375 15.5487
2610 2 31.6892 39.9511 17.0684
2613 2 36.4982 38.3944 15.523
2612 2 34.9557 39.8861 17.0613
2615 2 39.6733 38.3426 15.488
2641 2 39.7003 41.7387 15.4272
266678 2 9.54889 8.18094 20.258
55748 2 22.171 8.28104 20.2224
55752 2 28.4929 8.02655 20.2389
55756 2 35.0595 8.20778 20.3262
55758 2 38.0936 8.20536 20.3019
55760 2 41.4038 8.18234 20.2273
213641 2 14.2115 9.79328 18.4942
2707 2 20.5967 9.72842 18.6357
2706 2 19.0504 11.3512 20.1551
2735 2 23.7817 12.9716 18.5904
2710 2 25.2443 11.3744 20.3369
2739 2 30.0826 13.029 18.6688
2712 2 28.6903 11.4101 20.1156
2741 2 33.4066 12.8734 18.6347
2718 2 38.1394 11.3132 20.1705
2745 2 39.6297 12.9017 18.681
213668 2 15.8771 14.5739 20.292
2732 2 19.0349 14.6107 20.3126
2761 2 23.7386 16.0597 18.5386
2738 2 28.618 14.5349 20.2023
2744 2 38.149 14.6122 20.2211
2771 2 39.6394 16.1107 18.6646
213692 2 12.7428 17.6639 20.2669
2785 2 20.5793 19.2658 18.6046
2784 2 19.0229 20.791 20.1768
2787 2 23.7375 19.2998 18.615
2760 2 22.1644 17.7564 20.1151
2789 2 27.0103 19.3143 18.5386
2766 2 31.7961 17.7705 20.2479
2792 2 31.795 20.9041 20.2812
2768 2 34.999 17.7727 20.3317
2794 2 34.8571 20.9034 20.2277
2796 2 38.1349 20.9021 20.3225
213741 2 7.9445 22.4245 18.4473
213746 2 15.8898 24.1755 20.097
2810 2 18.9124 24.1201 20.1904
2812 2 22.2393 23.9421 20.2569
2814 2 25.4629 24.0461 20.2808
2816 2 28.4872 24.1691 20.265
2818 2 31.751 24.1576 20.2071
2822 2 37.9882 24.1027 20.2554
2824 2 41.3181 24.0211 20.3333
213793 2 7.85535 28.8585 18.735
213769 2 11.1362 25.616 18.5373
213795 2 11.0713 28.9274 18.6864
213771 2 14.2745 25.5656 18.5835
2835 2 17.4432 25.5799 18.6579
213797 2 14.2614 28.9358 18.5598
2861 2 17.3873 28.8556 18.5613
2863 2 20.6047 28.7994 18.5267
2865 2 23.7634 28.715 18.6863
2841 2 27.0397 25.5728 18.5903
2867 2 27.1096 28.8483 18.4533
2869 2 30.1043 28.794 18.5793
2845 2 33.3458 25.7049 18.6742
2847 2 36.5452 25.7403 18.6717
2846 2 34.9477 27.1393 20.2065
2848 2 38.0444 27.1681 20.236
213794 2 9.48548 30.2724 20.1001
213796 2 12.7183 30.3392 20.1034
213820 2 9.51721 33.6987 20.259
2887 2 17.3766 32.0288 18.593
213824 2 15.8549 33.5679 20.1743
2890 2 22.2111 33.6564 20.3393
2892 2 25.4412 33.6168 20.1942
2895 2 30.1209 32.026 18.591
2897 2 33.3316 32.1642 18.7136
2896 2 31.7139 33.5447 20.2273
2898 2 34.8406 33.5365 20.2472
2901 2 39.6545 32.0242 18.574
2926 2 37.9931 36.8617 20.2171
213897 2 8.08919 41.6082 18.632
213873 2 11.0465 38.3803 18.5297
213872 2 9.55656 39.9599 20.0826
213876 2 15.8996 39.9144 20.1984
2967 2 20.6561 41.5675 18.7047
2943 2 23.8575 38.4644 18.6681
2942 2 22.2737 40.0148 20.1926
2944 2 25.3822 39.9795 20.221
2947 2 30.1637 38.3213 18.4936
2971 2 26.9007 41.4726 18.592
2973 2 30.3121 41.5757 18.6107
2949 2 33.2734 38.452 18.4757
2951 2 36.5907 38.3868 18.6127
2977 2 36.5044 41.5724 18.6122
2952 2 38.0324 39.9591 20.1945
2954 2 41.2971 39.9546 20.1655
267353 2 7.84756 6.52212 24.8901
267355 2 11.1164 6.581 25.0039
56425 2 23.9136 6.55148 25.024
56086 2 22.2656 8.16817 23.4019
56091 2 30.0737 6.6027 21.7747
56433 2 36.5598 6.57465 24.9686
214313 2 7.90672 9.80602 24.8933
214339 2 8.01631 12.88 24.9523
213977 2 11.0728 9.82165 21.8763
213976 2 9.45408 11.3129 23.4449
213978 2 12.8102 11.3235 23.378
213979 2 14.2656 9.8239 21.8968
3069 2 17.5106 12.9429 21.6975
214343 2 14.2486 12.9946 24.9164
3407 2 17.4924 12.9307 25.0045
3044 2 18.9383 11.4945 23.4792
3047 2 23.6554 9.71698 21.808
3073 2 23.789 12.893 21.7822
3046 2 22.304 11.3695 23.2707
3389 2 30.074 9.75786 25.0629
3050 2 28.6281 11.2608 23.459
3079 2 33.3368 12.9476 21.8324
3417 2 33.3352 12.8814 25.0382
3055 2 36.6126 9.77573 21.7331
3056 2 38.0874 11.2829 23.3086
214027 2 7.87051 16.1266 21.8047
214029 2 11.1962 16.0735 21.8072
214004 2 12.7531 14.5753 23.3635
214031 2 14.2886 16.0409 21.7512
3095 2 17.4532 16.0254 21.6874
3433 2 17.4441 16.0872 25.0944
3097 2 20.5916 16.1154 21.7442
3439 2 26.9484 16.0903 24.9931
3441 2 30.2464 16.1741 25.0714
3107 2 36.4792 16.1118 21.7581
3445 2 36.5374 16.1517 25.0724
3109 2 39.6512 16.0858 21.8183
214393 2 11.1104 19.2702 24.9943
214057 2 14.3006 19.308 21.8277
3121 2 17.5058 19.4169 21.8468
214058 2 15.8765 20.8688 23.352
3122 2 18.9089 20.8877 23.3718
3124 2 22.2344 20.9104 23.307
3465 2 27.0373 19.3463 25.0346
3467 2 30.1992 19.3595 25.1552
3131 2 33.3866 19.3277 21.7509
3471 2 36.504 19.3794 25.1426
3132 2 34.9306 20.8147 23.4357
3473 2 39.5957 19.243 25.073
214417 2 7.92493 22.5225 24.8941
214081 2 11.1891 22.4702 21.8216
214082 2 12.7294 24.0229 23.3489
214421 2 14.3245 22.4751 24.7999
3485 2 17.4366 22.3908 24.8866
214084 2 15.8508 24.0382 23.4265
3151 2 23.776 22.5098 21.7458
3153 2 27.0217 22.5472 21.685
3491 2 26.9782 22.5023 25.0636
3158 2 34.9672 24.1504 23.3329
3161 2 39.654 22.5333 21.7379
214106 2 9.51094 27.2174 23.3022
3173 2 17.3701 25.5739 21.7318
214135 2 14.1799 28.8896 21.7676
214447 2 14.2737 25.5754 24.837
3537 2 17.4482 28.7686 24.9765
3201 2 20.5873 28.8072 21.8301
3513 2 20.6338 25.6373 24.9602
3178 2 25.5139 27.2549 23.3644
3541 2 23.8787 28.692 24.9297
3179 2 26.9037 25.6206 21.7738
3181 2 30.1585 25.5953 21.6694
3205 2 26.9459 28.7611 21.824
3519 2 30.1066 25.6571 25.0883
3543 2 27.006 28.6308 25.0772
3209 2 33.3149 28.7709 21.7692
3185 2 36.525 25.6541 21.7297
3188 2 41.3383 27.1188 23.3733
214495 2 7.87301 31.9438 24.9792
214497 2 11.1443 31.9481 24.9544
214134 2 12.6306 30.3906 23.3647
3226 2 19.1168 33.6936 23.322
3228 2 22.2228 33.7241 23.3654
3230 2 25.3504 33.6863 23.2661
3232 2 28.6391 33.6536 23.2916
3235 2 33.2342 32.1058 21.8496
3208 2 31.8614 30.3549 23.2943
3234 2 31.7823 33.6012 23.2755
3575 2 36.5091 31.9837 25.0631
3239 2 39.7356 32.0917 21.9584
3214 2 41.2611 30.5657 23.3879
3240 2 41.3017 33.5462 23.3587
214183 2 7.88565 35.139 21.6985
214521 2 7.88539 35.2483 24.8827
214185 2 11.0813 35.1594 21.7547
214186 2 12.6116 36.6796 23.2362
214187 2 14.2529 35.2254 21.8066
214188 2 15.8907 36.8067 23.3223
3253 2 20.6663 35.1481 21.9063
3591 2 20.6098 35.1974 24.8817
3252 2 19.139 36.7527 23.3557
3255 2 23.8099 35.128 21.8467
3254 2 22.2073 36.6509 23.364
3256 2 25.3611 36.7477 23.2993
3259 2 30.221 35.0389 21.7896
3601 2 36.4886 35.2877 25.0538
3262 2 35.0149 36.7956 23.3958
3266 2 41.3256 36.8564 23.437
214210 2 9.46398 39.9643 23.4272
214212 2 12.7934 40.0722 23.4198
3277 2 17.5131 38.3237 21.9163
214577 2 14.3057 41.6099 24.981
3278 2 19.0473 39.981 23.372
3643 2 20.6183 41.3784 24.9696
3307 2 23.7754 41.4008 21.8048
3280 2 22.2523 40.1324 23.4218
3645 2 23.7476 41.5068 24.9687
3282 2 25.3013 40.0417 23.385
3623 2 30.153 38.5121 24.8983
3284 2 28.5957 39.9226 23.43
3286 2 31.7535 39.9587 23.4776
3289 2 36.547 38.3356 21.7412
267691 2 7.92051 6.57366 28.2641
56759 2 17.4598 6.62246 28.1334
267358 2 15.947 8.15792 26.6409
56761 2 20.7075 6.66189 28.1908
56422 2 19.093 8.08275 26.6761
56426 2 25.3589 8.1062 26.5534
56765 2 27.0013 6.60773 28.1208
56428 2 28.5493 8.12655 26.6039
56771 2 36.4453 6.51768 28.1994
56432 2 35.0507 8.06913 26.6279
56773 2 39.8208 6.53949 28.1227
214653 2 11.1937 9.7494 28.2612
214681 2 14.3209 12.9641 28.2141
3745 2 17.3651 13.0527 28.2459
3747 2 20.8406 12.8462 28.1558
3384 2 22.2015 11.3313 26.6321
3386 2 25.3883 11.3334 26.5726
3388 2 28.6157 11.2913 26.5775
3390 2 31.788 11.3242 26.5017
3731 2 36.5466 9.71378 28.0614
3394 2 38.0227 11.3597 26.7715
3757 2 36.5911 12.9472 28.2029
214703 2 7.99881 16.0548 28.0254
214340 2 9.49791 14.5461 26.63
214705 2 11.0536 16.1057 28.1176
214344 2 15.9223 14.4296 26.5142
3773 2 20.6584 16.1038 28.1297
3410 2 22.1605 14.4769 26.7118
3777 2 27.0934 16.0874 28.3047
3422 2 41.1918 14.5691 26.6732
3785 2 39.7273 16.1237 28.1138
214366 2 9.5585 17.662 26.6224
3797 2 17.5697 19.3065 28.1072
3434 2 19.0001 17.624 26.6048
3460 2 18.9662 20.9393 26.5984
3462 2 22.1534 20.9083 26.6781
3466 2 28.4931 20.8534 26.4528
3442 2 31.6503 17.7184 26.5728
3468 2 31.7737 20.9466 26.64
3446 2 38.0976 17.7218 26.5574
3470 2 34.9373 20.8564 26.6495
3472 2 38.1049 20.8034 26.5061
214755 2 7.8264 22.3569 28.251
214759 2 14.2461 22.4774 28.2744
3825 2 20.5821 22.2791 28.1182
3490 2 25.4608 23.9373 26.5333
3833 2 33.403 22.3934 28.0762
3496 2 34.8631 23.9983 26.6848
3834 2 34.8244 23.8969 29.6417
214781 2 7.99243 25.7467 28.0566
214444 2 9.51841 27.229 26.6536
214809 2 11.0987 28.7251 28.1202
214785 2 14.1992 25.5584 28.3458
3851 2 20.6674 25.674 28.1817
3516 2 25.3476 27.3224 26.5357
3879 2 23.9756 28.8261 28.155
3857 2 30.0625 25.6379 28.2639
3518 2 28.6173 27.1288 26.5546
3859 2 33.4978 25.5606 28.212
3885 2 33.4301 28.8241 28.0599
3522 2 34.7969 27.2102 26.7182
3524 2 38.1677 27.2433 26.6507
3889 2 39.5945 28.8405 28.2111
214472 2 12.5964 30.3732 26.5838
214498 2 12.6439 33.6324 26.4742
3564 2 19.0763 33.6562 26.4625
3905 2 23.9466 32.0579 28.1296
3568 2 25.3953 33.5755 26.6401
3909 2 30.1731 32.0445 28.15
3572 2 31.691 33.5338 26.6669
3548 2 34.9427 30.4382 26.5455
3576 2 37.999 33.6464 26.5679
3594 2 25.4064 36.8166 26.5938
3933 2 26.9296 35.2573 28.1515
3939 2 36.561 35.2159 28.0742
3600 2 34.9495 36.6737 26.6193
3602 2 38.0335 36.7301 26.6128
3604 2 41.3494 36.8039 26.6966
214885 2 7.857 38.4351 28.2439
214913 2 11.143 41.4847 28.3151
214915 2 14.3031 41.5624 28.2624
3616 2 19.0947 39.9814 26.4977
3618 2 22.243 40.083 26.5055
3983 2 23.7369 41.5525 28.2013
3987 2 30.2024 41.5678 28.2292
3626 2 34.9448 40.0276 26.5745
3967 2 39.7374 38.3117 28.1615
267694 2 12.6251 8.20317 29.7556
268030 2 9.51998 8.27216 33.0701
57101 2 23.7937 6.52617 31.4101
57100 2 22.3922 8.11669 32.9101
57104 2 28.5597 8.18125 33.0496
57111 2 39.6884 6.52386 31.3646
215015 2 7.9421 12.7907 31.2849
214654 2 12.7561 11.4035 29.7421
4057 2 17.509 9.83611 31.392
215019 2 14.2615 12.9184 31.3273
4058 2 18.9862 11.3229 32.9612
4061 2 23.7606 9.79586 31.4489
3722 2 22.2437 11.3217 29.8129
4060 2 22.363 11.3241 32.9355
4063 2 27.1454 9.59716 31.4925
4089 2 27.0883 13.0382 31.4115
3728 2 31.7281 11.314 29.8282
4066 2 31.7617 11.3977 33.1045
4069 2 36.5495 9.72181 31.4227
3734 2 41.4091 11.2698 29.6929
4072 2 41.3355 11.3286 32.9631
215041 2 7.93921 16.1489 31.4048
215018 2 12.6833 14.3846 33.0287
214682 2 15.7782 14.3901 29.7616
4111 2 20.5435 16.011 31.4543
4084 2 18.998 14.5578 33.0126
4113 2 23.9014 16.0809 31.3231
3752 2 28.5322 14.5141 29.8026
4090 2 28.5974 14.4782 33.0054
3754 2 31.8068 14.5844 29.8588
4119 2 33.355 16.1201 31.4338
4123 2 39.75 16.2206 31.5843
214706 2 12.6695 17.5479 29.6628
214732 2 12.6985 20.9478 29.7702
215046 2 15.8744 17.6528 33.0008
215072 2 15.749 20.8753 33.0074
3798 2 19.0222 20.8148 29.6779
4139 2 23.9039 19.3357 31.3774
3802 2 25.3298 20.8265 29.8702
4140 2 25.303 20.8797 32.9025
4143 2 30.2068 19.2853 31.4746
3804 2 28.7557 20.8296 30.0081
4116 2 28.6871 17.7287 32.9621
4144 2 31.7123 20.8297 32.9586
3782 2 34.8473 17.6634 29.8248
3810 2 38.0014 20.8639 29.9218
4120 2 34.9021 17.6866 33.1244
4146 2 34.9526 20.7531 33.0775
3812 2 41.4682 20.715 29.6895
4124 2 41.3652 17.6012 32.965
4150 2 41.2359 20.9061 32.9782
215095 2 11.1374 22.4486 31.2707
214758 2 12.6318 24.057 29.7782
214760 2 15.7468 24.0198 29.7031
4165 2 24.0038 22.4776 31.3377
3828 2 25.3715 23.9784 29.816
4166 2 25.398 24.0345 33.0245
4169 2 30.2054 22.4792 31.3796
3830 2 28.6573 24.0349 29.7644
4170 2 31.7089 23.9977 32.906
3838 2 41.3102 24.0046 29.8109
215119 2 7.93471 25.6852 31.3929
215121 2 11.1547 25.693 31.2782
214784 2 12.5945 27.2165 29.761
215120 2 9.47694 27.0799 32.8657
215124 2 15.7749 27.1822 32.9183
4188 2 19.067 27.2648 32.9495
4190 2 22.3307 27.1807 32.9906
4219 2 26.9989 28.812 31.3837
4194 2 28.4311 27.2279 32.9393
4223 2 33.2323 28.9299 31.4234
4225 2 36.6434 28.886 31.3801
4202 2 41.4078 27.2971 32.8256
215171 2 7.89317 32.0661 31.3587
214836 2 12.7173 33.5265 29.8512
215148 2 12.6263 30.3182 32.9865
215172 2 9.45948 33.6382 33.0579
214812 2 15.8079 30.4661 29.7297
215150 2 15.9117 30.4484 32.9601
3876 2 19.0913 30.4122 29.7754
3902 2 19.1335 33.6611 29.8518
4240 2 19.1044 33.6574 32.9932
3880 2 25.3982 30.3923 29.7674
4216 2 22.2848 30.4504 32.9985
4242 2 22.2274 33.6891 33.0114
4245 2 26.9496 32.0273 31.3071
4222 2 31.7463 30.3893 32.9506
3888 2 38.092 30.3282 29.7701
4226 2 38.0221 30.3425 32.9923
4250 2 34.8901 33.7019 32.8852
4252 2 38.123 33.6977 32.8388
214862 2 12.5919 36.8194 29.7665
214864 2 15.9877 36.7979 29.7759
4267 2 20.592 35.0972 31.4104
3934 2 28.5077 36.7549 29.7298
4272 2 28.5499 36.7966 33.0417
4275 2 33.349 35.1031 31.4264
4277 2 36.5555 35.1519 31.5108
4278 2 38.0572 36.7813 32.8484
4279 2 39.6312 35.224 31.4077
215249 2 7.80986 41.477 31.251
214886 2 9.43191 40.0251 29.7679
214888 2 12.7666 40.1026 29.7223
215226 2 12.7863 40.0323 32.8745
214890 2 15.7685 40.1162 29.7521
215253 2 14.305 41.5067 31.342
215228 2 15.7984 39.9945 32.8516
3954 2 19.0793 40.0487 29.7887
4319 2 20.5873 41.5505 31.2721
4292 2 19.0803 40.1021 32.8986
4295 2 23.7066 38.4626 31.283
3956 2 22.2643 40.0688 29.7703
4298 2 28.5162 39.9873 32.9868
4301 2 33.3695 38.5456 31.3633
3962 2 31.7543 39.9877 29.7764
4300 2 31.8107 39.95 32.9051
4303 2 36.5244 38.4351 31.3983
3964 2 35.0295 39.8583 29.8738
4302 2 35.0121 39.9777 32.8916
3968 2 41.235 39.9071 29.776
268705 2 8.00445 6.4712 37.7678
268370 2 12.7467 8.12982 36.0817
268371 2 14.1684 6.54287 34.6356
57435 2 17.5809 6.52797 34.4535
57773 2 17.4981 6.61286 37.8395
57439 2 23.704 6.63223 34.582
57438 2 22.2451 8.0975 36.1066
57441 2 27.1479 6.55236 34.463
57779 2 27.1707 6.54779 37.9121
57444 2 31.7558 8.19957 36.2777
57787 2 39.757 6.54438 37.8465
215327 2 7.96178 9.6463 34.4776
215353 2 7.8571 12.9448 34.6351
215665 2 7.96856 9.78359 37.8243
215329 2 11.1675 9.70099 34.6413
215355 2 11.2208 12.8796 34.5386
215330 2 12.6932 11.4376 36.062
215357 2 14.2284 12.8772 34.6196
4421 2 17.5421 12.9071 34.508
215695 2 14.3098 12.8707 37.6526
215332 2 15.8441 11.5099 36.0305
4398 2 22.2544 11.3379 36.1535
4400 2 25.4831 11.3086 36.1517
4401 2 27.0444 9.8252 34.6892
4741 2 30.1421 9.69197 37.7553
4402 2 28.6455 11.2203 36.2266
4431 2 33.2591 12.9309 34.6366
4743 2 33.3664 9.64814 37.7954
4769 2 33.4187 13.0046 37.8134
4433 2 36.599 12.8506 34.6904
4745 2 36.5761 9.74397 37.8242
4408 2 38.1125 11.2896 36.25
4747 2 39.7246 9.83381 37.6901
4410 2 41.3146 11.25 36.2417
215381 2 11.1576 16.0219 34.4851
215719 2 11.1289 15.9213 37.8237
4447 2 17.4128 16.1283 34.4261
4451 2 23.8325 16.0793 34.6398
4424 2 22.3418 14.6098 36.1683
4789 2 23.7638 16.0266 37.8435
4455 2 30.1514 16.0754 34.5948
4428 2 28.6367 14.596 36.1102
4430 2 31.8396 14.4554 36.1809
4459 2 36.4753 16.2316 34.6527
4797 2 36.4921 16.1084 37.7101
4436 2 41.3313 14.5793 36.0896
215405 2 7.9934 19.3111 34.6092
215407 2 11.001 19.3786 34.6943
215406 2 9.50159 20.8815 36.1453
215409 2 14.3385 19.2938 34.488
215747 2 14.2408 19.28 37.7832
215410 2 15.6741 20.7802 36.1629
4452 2 25.3499 17.5164 36.1354
4478 2 25.3275 21.0383 36.1964
4480 2 28.6483 20.8335 36.1841
4483 2 33.4214 19.2451 34.5958
4456 2 31.8428 17.7708 36.141
4821 2 33.4271 19.1855 37.6919
4485 2 36.4325 19.2382 34.6398
4458 2 34.9665 17.701 36.1937
4460 2 38.0186 17.6668 36.1518
4484 2 34.8691 20.7488 36.1213
4488 2 41.3303 20.8707 36.209
215769 2 7.98943 22.453 37.7476
215771 2 11.0356 22.3992 37.7213
215432 2 9.46528 23.9341 36.3053
215434 2 12.6443 23.988 36.2077
215435 2 14.2343 22.3886 34.5985
215799 2 14.1701 25.5259 37.7045
4839 2 20.7949 22.5029 37.8222
4503 2 23.9735 22.4024 34.494
4841 2 23.8164 22.4375 37.7946
4510 2 34.9166 24.1088 36.1578
215458 2 9.42132 27.2506 36.1679
215460 2 12.7423 27.2182 36.2143
4889 2 17.2835 28.8998 37.7246
4529 2 23.8506 25.6329 34.4133
4867 2 23.7724 25.6131 37.83
4531 2 26.9876 25.6493 34.4238
4895 2 26.9657 28.9139 37.6751
4897 2 30.1907 28.8154 37.6519
4873 2 33.3847 25.6218 37.7281
4534 2 31.7654 27.2546 36.2788
4899 2 33.3738 28.7296 37.6419
4537 2 36.4272 25.7009 34.7292
4536 2 34.8835 27.2028 36.2349
4877 2 39.7246 25.7094 37.8046
4903 2 39.7241 28.7205 37.7473
4540 2 41.3454 27.2457 36.3358
215509 2 7.98896 32.0285 34.5513
215849 2 11.1199 32.0784 37.634
215512 2 12.6348 33.5834 36.1607
215488 2 15.9182 30.3575 36.1809
4581 2 23.7385 31.9104 34.57
4554 2 22.2542 30.4932 36.0815
4556 2 25.3991 30.4947 36.1927
4585 2 30.2189 31.9016 34.4871
4584 2 28.7131 33.5904 35.932
4925 2 33.3527 32.1194 37.6559
4927 2 36.534 32.1212 37.6106
4588 2 34.9001 33.5132 36.1842
4590 2 38.0881 33.5877 36.2022
215535 2 7.91193 35.2142 34.5904
215537 2 11.1016 35.1023 34.6158
215540 2 15.8208 36.8346 36.2014
4605 2 20.6011 35.1158 34.4135
4607 2 23.7639 35.2039 34.4132
4945 2 23.67 35.212 37.8187
4611 2 30.1112 35.2903 34.5358
4614 2 34.9196 36.8793 36.1601
4955 2 39.619 35.1704 37.7142
215587 2 7.76872 41.676 34.5646
215899 2 7.82619 38.3134 37.6892
215925 2 7.89547 41.5966 37.7398
215901 2 11.0564 38.4036 37.749
215903 2 14.4189 38.3904 37.8027
215566 2 15.7177 39.9962 36.2709
215929 2 14.3706 41.5336 37.7772
4630 2 18.9715 39.9794 36.18
4633 2 23.7408 38.5305 34.6864
4632 2 22.2568 39.9672 36.1192
4634 2 25.4347 39.9241 36.078
4635 2 27.0026 38.4087 34.5173
4975 2 30.0967 38.3711 37.762
4999 2 26.9695 41.6047 37.7598
4977 2 33.4102 38.299 37.6607
4667 2 36.5347 41.6126 34.4576
4643 2 39.7052 38.4103 34.558
4644 2 41.2422 39.9343 36.0884
269047 2 14.3659 6.57897 40.9451
57774 2 18.9897 8.22547 39.3366
58115 2 23.7757 6.58908 41.0223
58119 2 30.0907 6.55804 40.9218
57780 2 28.616 8.17173 39.3752
57784 2 34.887 8.26116 39.3396
57786 2 38.2647 8.24252 39.2064
215666 2 9.47358 11.2359 39.2672
5071 2 17.498 9.61552 41.0166
5097 2 17.49 12.9411 40.907
5073 2 20.6381 9.68199 40.9849
4736 2 22.2285 11.2639 39.4284
5077 2 27.0829 9.71213 40.9518
5103 2 26.991 12.9536 40.8888
5105 2 30.1802 12.9588 40.8868
5081 2 33.4081 9.74862 40.9997
5111 2 39.7412 12.9327 40.9592
215692 2 9.55225 14.5121 39.2306
215694 2 12.761 14.4785 39.2506
216059 2 14.1806 16.0188 40.8838
4762 2 22.2376 14.5297 39.3022
4764 2 25.4371 14.4506 39.3739
4766 2 28.6563 14.3775 39.4375
5133 2 33.431 16.0249 40.8631
4770 2 34.9568 14.5656 39.3253
5135 2 36.4791 15.9531 41.0132
4774 2 41.2458 14.3953 39.4105
216083 2 11.088 19.3493 40.778
215744 2 9.55702 20.9728 39.3552
215746 2 12.6057 20.8592 39.3288
215722 2 15.7197 17.6826 39.3494
4786 2 19.0863 17.6594 39.3243
4788 2 22.3107 17.6112 39.3239
4814 2 22.2696 20.9239 39.2631
4792 2 28.5194 17.6882 39.2511
4794 2 31.9649 17.6447 39.3979
5159 2 33.4017 19.2742 40.86
4822 2 34.9037 20.8068 39.3689
4800 2 41.3485 17.7649 39.4071
4826 2 41.3502 20.968 39.4218
216109 2 11.1002 22.4148 40.8587
215774 2 15.759 24.047 39.2869
4840 2 22.271 24.0232 39.2631
5181 2 27.0435 22.4709 40.9199
4844 2 28.5158 24.0235 39.4797
4846 2 31.8185 24.1072 39.1729
5187 2 36.4986 22.4472 40.9276
4848 2 35.0136 24.1189 39.3945
5189 2 39.7321 22.5372 41.0186
216133 2 7.92185 25.6496 40.8901
215796 2 9.42535 27.1059 39.3789
5227 2 17.4429 28.8758 40.9842
5203 2 20.7098 25.6129 40.8064
4866 2 22.2452 27.1626 39.3161
5207 2 27.0698 25.6211 40.8682
5235 2 30.1383 28.9191 40.831
5213 2 36.6362 25.6336 40.9257
4876 2 38.1921 27.1558 39.2922
216185 2 7.83828 32.1319 40.9538
216187 2 11.1515 32.0851 41.0702
215826 2 15.9898 30.3415 39.4039
215852 2 15.8403 33.6038 39.3541
4916 2 19.0139 33.6158 39.3002
4892 2 22.1793 30.4557 39.3559
4918 2 22.2414 33.6329 39.3168
4896 2 28.6131 30.3377 39.2565
5259 2 27.1294 31.9967 40.8327
4922 2 28.5125 33.701 39.5053
5263 2 33.3146 32.06 40.9774
216213 2 11.1207 35.1085 40.9707
215878 2 15.8289 36.9187 39.4067
4944 2 22.2377 36.7932 39.2446
5285 2 27.0037 35.1604 40.9283
5287 2 30.1685 35.1376 40.9461
5289 2 33.3709 35.1642 41.0353
4954 2 38.1512 36.6856 39.3304
5293 2 39.6448 35.2697 40.8963
216237 2 7.85939 38.3664 40.9644
216239 2 11.0493 38.4735 40.9848
216241 2 14.3475 38.3855 40.8611
5305 2 17.4311 38.3945 40.9305
215904 2 15.7967 39.9205 39.3616
5333 2 20.5774 41.5166 40.9895
4972 2 25.4767 39.9604 39.3217
5311 2 26.9736 38.4701 40.8782
5339 2 30.0581 41.5023 40.953
4980 2 38.1003 40.0756 39.352
269383 2 11.0745 6.61129 44.0001
269044 2 9.64284 8.17133 42.5888
269048 2 15.8647 8.16187 42.4641
58451 2 20.6964 6.72164 44.0132
58112 2 19.0917 8.18713 42.511
58114 2 22.2267 8.11664 42.4964
58455 2 27.0345 6.52089 44.21
58456 2 28.6057 8.16602 45.6356
58459 2 33.3215 6.613 44.128
58120 2 31.789 8.17017 42.5656
58124 2 38.0549 8.21285 42.5877
58460 2 34.9075 8.16056 45.6151
58126 2 41.3812 8.23998 42.5471
216343 2 11.0917 9.73493 44.0168
216006 2 12.708 11.1794 42.6241
216345 2 14.3992 9.75871 44.0755
5435 2 17.498 12.7896 44.2968
216346 2 15.8593 11.2837 45.638
5410 2 19.1292 11.2473 45.7152
5439 2 23.8251 12.9199 44.0768
5076 2 25.4881 11.3976 42.5156
5417 2 30.1916 9.71015 44.086
5441 2 26.9676 12.8815 44.0569
5443 2 30.2631 12.9274 44.1389
5418 2 31.7555 11.4336 45.6962
5421 2 36.5038 9.78067 44.1245
5082 2 34.9886 11.2518 42.5476
5447 2 36.5039 12.9763 43.9888
5422 2 38.0133 11.3807 45.6749
5086 2 41.3094 11.3031 42.4879
5424 2 41.3774 11.2723 45.6394
216395 2 11.1881 16.008 44.1229
216032 2 12.6895 14.627 42.525
216370 2 12.6087 14.4856 45.7986
5461 2 17.4854 16.123 44.146
5436 2 18.9487 14.5328 45.6595
5100 2 22.3743 14.4876 42.653
5465 2 23.735 16.0022 44.2434
5438 2 22.4128 14.3544 45.7182
5471 2 33.4041 16.0856 44.1496
5108 2 34.9126 14.6105 42.5485
5110 2 38.1087 14.4728 42.4769
5450 2 41.3764 14.5934 45.6855
216421 2 11.0813 19.2603 44.1221
216086 2 15.8538 20.7831 42.4391
216398 2 15.934 17.5396 45.6302
216424 2 15.8731 20.8606 45.7228
5124 2 19.0312 17.5948 42.6272
5491 2 23.7879 19.2902 44.1656
5152 2 22.2823 20.7554 42.6007
5464 2 22.2764 17.721 45.6833
5492 2 25.313 20.726 45.706
5130 2 28.6146 17.6175 42.5362
5468 2 28.571 17.5628 45.8191
5470 2 31.816 17.5545 45.7093
5496 2 31.7325 20.9473 45.67
5162 2 38.2093 20.923 42.4422
5500 2 38.1963 20.8085 45.7472
5501 2 39.6178 19.4135 44.069
216447 2 11.1339 22.5676 44.1518
216110 2 12.5471 23.9145 42.4754
216446 2 9.47365 23.9904 45.698
216448 2 12.6967 23.9778 45.6844
5178 2 22.1962 24.194 42.5693
5521 2 30.1919 22.4076 44.1654
5523 2 33.4223 22.4531 44.2782
5188 2 38.0694 23.9984 42.3703
5524 2 34.8997 23.9751 45.6769
5190 2 41.3772 24.0457 42.4945
5528 2 41.3652 24.0173 45.5638
216134 2 9.4352 27.1567 42.5102
5539 2 17.5207 25.7324 44.1187
216501 2 14.254 28.8112 44.0875
5540 2 18.9783 27.2189 45.7461
5543 2 23.7657 25.6361 44.0258
5571 2 27.0184 28.7946 44.1396
5573 2 30.182 28.7515 44.2485
5546 2 28.5922 27.2498 45.7288
5575 2 33.3371 28.7988 44.1656
5548 2 31.7671 27.2852 45.6468
5214 2 38.0844 27.1863 42.4342
5554 2 41.3021 27.246 45.6524
216525 2 11.048 32.0544 44.0788
216186 2 9.57394 33.5439 42.4632
216188 2 12.6527 33.5655 42.5709
216498 2 9.55935 30.493 45.636
216527 2 14.2478 32.0985 44.0583
5228 2 18.9843 30.3388 42.4421
5254 2 19.0995 33.6679 42.6054
5566 2 18.8953 30.4209 45.8198
5592 2 19.0427 33.6434 45.6792
5568 2 22.2996 30.4033 45.7387
5594 2 22.0904 33.677 45.5028
5596 2 25.4842 33.5784 45.7885
5599 2 30.2117 32.0787 44.0718
5601 2 33.3586 32.0683 44.034
5262 2 31.7694 33.5881 42.498
5240 2 38.1093 30.3913 42.4722
5264 2 34.8141 33.5162 42.4836
5576 2 34.8355 30.4471 45.5701
5604 2 38.0958 33.5759 45.693
5242 2 41.3588 30.3337 42.4703
216552 2 12.6191 36.6462 45.7116
216553 2 14.2142 35.2684 44.1512
216554 2 15.848 36.7725 45.685
5619 2 20.5296 35.1908 44.1489
5280 2 19.0772 36.8237 42.5674
5620 2 22.0909 36.8442 45.6584
5624 2 28.5734 36.8647 45.6896
5626 2 31.7862 36.848 45.6799
5290 2 34.876 36.7715 42.4779
5630 2 38.0635 36.8135 45.6645
5294 2 41.2728 36.6901 42.4153
216601 2 7.92361 41.5358 44.0863
216238 2 9.47237 39.942 42.4883
216578 2 12.6838 40.0971 45.6545
216605 2 14.2622 41.6396 44.0731
5645 2 20.5592 38.3902 44.0126
5306 2 19.0573 39.9634 42.4975
5648 2 25.4753 40.0042 45.8037
5651 2 30.1439 38.3413 44.2037
5312 2 28.5882 39.9743 42.4893
5679 2 33.3692 41.5759 44.0141
5316 2 34.92 40.1143 42.6009
5681 2 36.4899 41.6255 44.0552
5656 2 37.9805 40.0908 45.5681
5320 2 41.2633 40.1035 42.5624
269721 2 11.1061 6.58182 47.3267
269722 2 12.6875 8.07797 48.7576
269723 2 14.3244 6.52628 47.3144
269724 2 15.8881 8.1505 48.888
58788 2 19.088 8.22514 48.8698
58792 2 25.4048 8.15728 48.9019
58796 2 31.7652 8.1723 48.8771
58798 2 34.9566 8.21298 48.8999
216679 2 7.81442 9.69056 47.3347
216707 2 11.1169 12.8843 47.1996
5749 2 20.6269 9.7906 47.2982
5751 2 23.8832 9.79486 47.3521
5777 2 23.8696 12.8983 47.3734
5750 2 22.2756 11.2824 48.7018
5752 2 25.4633 11.356 48.8033
5779 2 26.9267 12.9033 47.3973
5781 2 30.2911 12.8262 47.2759
5783 2 33.2998 12.9263 47.2998
5756 2 31.7742 11.4704 48.7862
5785 2 36.6266 12.9835 47.3337
5762 2 41.2662 11.3057 48.9824
216733 2 11.1306 16.0616 47.318
216710 2 15.9431 14.4486 48.9
5778 2 25.4508 14.5224 48.8272
6141 2 23.9094 16.1196 50.3863
5805 2 27.0577 16.1208 47.3361
5807 2 30.1638 16.1869 47.2118
5784 2 34.9874 14.3688 48.8122
5786 2 38.0731 14.4437 48.8959
5788 2 41.4245 14.4978 48.9043
216757 2 7.83118 19.2388 47.2916
216758 2 9.38926 20.8564 48.8988
5827 2 20.6805 19.081 47.3476
5800 2 19.0355 17.7109 48.8348
5829 2 23.8009 19.2151 47.3357
5802 2 22.3015 17.6953 48.8174
5830 2 25.4032 20.7011 48.8699
5806 2 28.5806 17.6166 48.874
6173 2 33.3538 19.3316 50.3144
5834 2 31.6609 20.8097 48.9319
5837 2 36.5915 19.3768 47.3442
5810 2 34.9488 17.7987 48.8439
5836 2 34.9911 20.8372 48.7838
5838 2 38.2063 20.7655 48.8441
5839 2 39.7526 19.3575 47.3621
5814 2 41.2698 17.8418 48.8617
5840 2 41.341 20.8233 48.8788
5853 2 20.6386 22.4552 47.2761
5859 2 30.257 22.2958 47.3193
5864 2 38.1198 24.1622 48.9071
5866 2 41.3336 24.0823 48.9736
216809 2 7.86177 25.6448 47.3095
216813 2 14.2402 25.5886 47.2433
5903 2 17.4151 28.7953 47.2741
216814 2 15.8251 27.1934 48.8796
5879 2 20.5411 25.7276 47.2471
5881 2 23.8214 25.6118 47.3694
5907 2 23.7849 28.9069 47.2539
5883 2 27.0658 25.7087 47.2561
5885 2 30.2374 25.8183 47.2496
5886 2 31.689 27.2278 48.9423
5917 2 39.7933 28.808 47.2632
6229 2 39.7657 25.6123 50.28
5892 2 41.2506 27.2563 48.8388
216836 2 9.46193 30.3623 48.9021
216838 2 12.7745 30.4613 48.9904
216862 2 9.60697 33.7149 48.8142
5929 2 17.441 32.0629 47.2504
216866 2 15.8064 33.6604 48.92
5932 2 22.2776 33.6491 48.9381
5935 2 27.0597 32.1018 47.3234
5936 2 28.5503 33.665 48.9391
5914 2 34.9 30.4044 49.0192
5916 2 38.147 30.4411 48.8569
5940 2 34.9787 33.5579 48.9603
5944 2 41.2525 33.6347 48.9011
216889 2 11.0823 35.2006 47.2586
5966 2 34.9223 36.9018 48.9017
216913 2 7.77468 38.3515 47.3447
216939 2 7.85052 41.5579 47.2795
216941 2 11.1141 41.5495 47.2676
216916 2 12.5588 39.9466 48.8477
5981 2 17.3593 38.2941 47.2277
5983 2 20.7796 38.3856 47.291
5984 2 22.1893 39.9661 48.8594
5987 2 26.9879 38.3799 47.2151
6013 2 27.0199 41.6227 47.3001
6015 2 30.0907 41.6726 47.3077
5991 2 33.2983 38.3531 47.2605
6017 2 33.3959 41.6701 47.3518
270057 2 7.86161 6.59529 50.4491
270397 2 11.1032 6.6051 53.5999
270060 2 12.6316 8.08907 52.1781
59126 2 18.98 8.24891 52.0287
59129 2 23.9447 6.53467 50.4348
59467 2 23.9301 6.49525 53.7293
59134 2 31.8229 8.26341 52.1371
59475 2 36.5009 6.54353 53.6339
59139 2 39.678 6.5565 50.4187
59477 2 39.7632 6.61222 53.6613
217017 2 7.85962 9.75769 50.4064
217043 2 7.83112 12.8942 50.4017
217355 2 7.91153 9.73998 53.7578
217381 2 7.97212 12.8855 53.8039
217045 2 11.116 12.855 50.5672
217383 2 10.9736 12.8662 53.7287
217020 2 12.6284 11.4796 52.1211
6085 2 17.5896 9.66096 50.4517
6111 2 17.488 12.9094 50.4593
6423 2 17.5716 9.71946 53.6033
217385 2 14.3077 12.9151 53.5854
6449 2 17.5022 12.8786 53.6393
6086 2 18.9374 11.3279 52.0509
6088 2 22.3311 11.2858 52.0863
6091 2 27.0191 9.77304 50.4524
6092 2 28.5609 11.2794 52.049
6433 2 33.4291 9.79371 53.6797
6459 2 33.4367 12.8985 53.6435
6123 2 36.508 13.0034 50.454
6096 2 34.9182 11.4285 52.0803
6099 2 39.7808 9.83676 50.461
6463 2 39.6988 12.9427 53.7321
217069 2 7.86885 16.1295 50.4874
217407 2 7.93973 16.1042 53.6141
6475 2 17.3414 16.0914 53.7564
6477 2 20.7224 16.0146 53.6837
6145 2 30.118 16.1239 50.4557
6118 2 28.7039 14.673 52.0601
6481 2 27.0474 16.0571 53.5699
6483 2 30.1243 16.0517 53.6784
6487 2 36.4681 16.1542 53.6922
6489 2 39.8269 16.1598 53.7442
217070 2 9.44459 17.5837 52.0338
217072 2 12.772 17.6796 52.0388
217098 2 12.7677 20.8159 52.0125
217099 2 14.1924 19.2375 50.6116
6163 2 17.5539 19.2665 50.4543
6503 2 20.5414 19.3153 53.666
6164 2 19.0688 20.7574 51.999
6142 2 25.4662 17.6039 51.9616
6168 2 25.4163 20.8373 52.0278
6169 2 26.9373 19.2853 50.484
6170 2 28.5739 20.8349 51.9854
6513 2 36.4539 19.282 53.6823
6177 2 39.7878 19.305 50.3995
217121 2 7.95329 22.375 50.3697
217459 2 7.89336 22.3798 53.6823
217124 2 12.8332 24.0706 52.0712
217125 2 14.2442 22.4589 50.6449
6191 2 20.5564 22.4607 50.5756
6190 2 19.1482 24.0492 52.0935
6197 2 30.1482 22.2913 50.4871
6537 2 33.2333 22.4796 53.7581
217511 2 7.86313 28.7528 53.7245
217150 2 12.7653 27.2284 52.085
217151 2 14.2583 25.7087 50.569
217489 2 14.2156 25.6379 53.6807
217515 2 14.1842 28.7517 53.7486
6579 2 17.4277 28.8277 53.6802
6555 2 20.5677 25.7088 53.5601
6216 2 19.0575 27.3269 52.1959
6581 2 20.6651 28.825 53.6567
6219 2 23.7222 25.6856 50.5042
6218 2 22.1785 27.2522 52.1115
6223 2 30.1748 25.675 50.4862
6247 2 26.9564 28.8347 50.4662
6249 2 30.2062 28.7847 50.4229
6587 2 30.0295 28.8102 53.7506
6251 2 33.3773 28.8114 50.4721
6227 2 36.4626 25.6369 50.4228
6226 2 34.9224 27.2094 51.8906
6567 2 39.597 25.7232 53.6352
217537 2 7.96216 32.078 53.6887
217203 2 14.3307 32.0577 50.5029
217204 2 15.7801 33.6923 51.9804
6607 2 20.5816 32.051 53.7516
6609 2 23.8363 32.0054 53.6443
6272 2 25.3824 33.7199 52.1128
6275 2 30.1039 32.1744 50.5175
6613 2 30.1921 32.1046 53.6341
6274 2 28.6038 33.6347 52.0947
6276 2 31.6694 33.5341 52.0451
6279 2 36.5422 32.0343 50.4263
6280 2 38.116 33.6402 52.0459
6256 2 41.2986 30.4552 52.042
217227 2 10.9761 35.1495 50.4312
217229 2 14.343 35.1638 50.481
6293 2 17.3816 35.14 50.4704
6297 2 23.8004 35.133 50.4502
6635 2 23.8542 35.2147 53.5731
6299 2 27.0848 35.1329 50.5416
6637 2 27.0246 35.17 53.5331
6300 2 28.4701 36.7729 52.03
6302 2 31.7363 36.8035 52.0757
6643 2 36.5179 35.173 53.6447
6304 2 35.0033 36.7462 52.1192
6307 2 39.7817 35.1595 50.5052
6308 2 41.3703 36.7154 51.983
217253 2 11.103 38.4792 50.4681
217254 2 12.5922 39.9705 52.005
6345 2 17.545 41.6116 50.4578
6657 2 17.3441 38.4729 53.6607
6321 2 20.6632 38.4132 50.408
6659 2 20.6822 38.3587 53.6787
6349 2 23.8361 41.5244 50.4693
6324 2 25.4202 39.9858 51.9927
6325 2 27.0049 38.4615 50.6017
6326 2 28.5004 39.9445 52.0249
6355 2 33.3421 41.5609 50.4514
6328 2 31.8706 40.0787 52.0257
6693 2 33.2076 41.432 53.6613
6331 2 36.3492 38.2742 50.5015
6695 2 36.526 41.5724 53.6401
6359 2 39.745 41.5874 50.4317
59464 2 19.0257 8.19718 55.1993
59805 2 23.732 6.51848 56.8627
59468 2 25.3493 7.94015 55.3414
59807 2 27.0392 6.49521 56.8374
59811 2 33.4633 6.5088 56.8704
217695 2 11.0368 9.77501 56.7716
217356 2 9.45806 11.2918 55.1436
217723 2 14.3397 12.9924 56.8362
6787 2 17.3945 13.0179 56.8298
6765 2 23.8262 9.68396 56.8775
6793 2 27.0489 12.9729 56.8088
6797 2 33.306 12.857 56.91
6773 2 36.5662 9.74652 56.806
6434 2 34.8262 11.3412 55.2741
6436 2 38.193 11.3071 55.2651
217745 2 8.00351 15.9487 56.7886
217382 2 9.39433 14.5589 55.1428
217386 2 15.921 14.3935 55.1678
6452 2 22.2462 14.57 55.1769
6817 2 23.7787 16.0413 56.8566
6456 2 28.6027 14.6572 55.286
6819 2 27.011 16.1149 56.8144
6821 2 30.1606 16.019 56.8592
6823 2 33.4083 16.1499 56.9166
6464 2 41.236 14.5061 55.1538
217771 2 7.91293 19.3162 56.8033
217773 2 11.1004 19.2944 56.8482
217410 2 12.6106 17.7503 55.3316
217434 2 9.52639 20.7888 55.2985
217412 2 15.9787 17.6889 55.2363
6839 2 17.442 19.284 56.7834
217438 2 15.9127 20.8221 55.2692
6502 2 19.0648 20.7847 55.3009
6845 2 27.0195 19.2637 56.8533
6508 2 28.4657 20.8532 55.3648
6510 2 31.8035 20.8956 55.2223
6486 2 34.9609 17.6639 55.2433
6490 2 41.3378 17.6785 55.1798
6516 2 41.4193 20.8752 55.1909
217464 2 15.8449 24.1923 55.2885
6871 2 27.1127 22.5052 56.7278
6534 2 28.4835 24.0554 55.3289
6536 2 31.8124 24.0367 55.2263
217486 2 9.46372 27.2791 55.1848
217488 2 12.8096 27.1311 55.2503
217827 2 14.2243 25.5957 56.7937
6891 2 17.4206 25.6423 56.7958
6895 2 23.7397 25.6821 56.8339
6558 2 25.3431 27.1848 55.395
6897 2 26.999 25.7423 56.7768
6560 2 28.5683 27.2485 55.2969
6903 2 36.4565 25.6162 56.9358
6564 2 35.0072 27.1705 55.3767
6905 2 39.8036 25.6144 57.0022
6931 2 39.6707 28.8689 56.827
217877 2 11.1571 32.0919 56.9023
217540 2 12.6489 33.601 55.3515
217516 2 15.7955 30.3261 55.1711
6606 2 19.0274 33.523 55.2303
6582 2 22.1384 30.4515 55.1478
6586 2 28.6223 30.4506 55.163
6614 2 31.6057 33.633 55.2678
6592 2 38.2247 30.4686 55.3391
6616 2 35.0043 33.6711 55.1585
6957 2 39.7546 32.0649 56.7853
6620 2 41.2264 33.6051 55.2819
217564 2 9.42064 36.8643 55.3165
217905 2 14.2341 35.1567 56.8579
6973 2 23.7213 35.092 56.8524
6977 2 30.1641 35.1936 56.7979
6983 2 39.8248 35.1467 56.8204
6646 2 41.2269 36.7447 55.3553
217927 2 7.93384 38.4292 56.7958
217590 2 9.40526 39.9722 55.2706
217592 2 12.7114 39.9962 55.3642
217931 2 14.2225 38.512 56.8676
217594 2 15.8215 40.0163 55.349
217957 2 14.1474 41.463 56.8568
7021 2 17.4526 41.4921 56.8233
7023 2 20.6593 41.6077 56.8931
6999 2 23.8223 38.4132 56.826
6664 2 28.5372 39.945 55.187
7005 2 33.2271 38.4579 56.8073
6666 2 31.8082 39.9509 55.2266
7007 2 36.5211 38.3516 56.793
7009 2 39.7959 38.3259 56.7938
7035 2 39.6094 41.6179 56.83
1614 2 18.917 43.2205 7.4224
1640 2 19.0022 46.2317 7.42225
1616 2 22.2789 43.2839 7.37506
1620 2 28.3688 43.2224 7.43752
1622 2 31.7866 43.1861 7.526
1624 2 35.0624 43.1864 7.40788
1628 2 41.1923 43.183 7.35931
1666 2 19.1364 49.6585 7.45946
1670 2 25.475 49.5485 7.60149
1674 2 31.651 49.6034 7.48216
1650 2 35.0042 46.3171 7.38489
1676 2 34.9252 49.4841 7.52131
1678 2 38.2329 49.4693 7.41024
1654 2 41.2178 46.3588 7.36765
18944 2 41.456 52.7533 7.37561
229888 2 9.38362 55.9088 7.4826
229890 2 12.7134 55.8506 7.5174
229892 2 15.8562 55.9688 7.45458
18956 2 19.1039 55.919 7.53632
18962 2 28.4636 55.9942 7.57133
18964 2 31.9057 55.8808 7.3504
18968 2 38.0358 55.9717 7.46187
18970 2 41.5446 55.8682 7.52733
212882 2 6.44317 43.0937 10.7189
213247 2 7.8808 44.7082 12.1626
212886 2 12.663 42.9874 10.5458
1977 2 17.5019 44.7333 8.96222
1956 2 25.4249 43.164 10.6715
2319 2 23.8659 44.7657 12.1802
1983 2 26.9511 44.6163 9.20429
1958 2 28.5534 43.186 10.7332
2323 2 30.2068 44.7845 12.2465
1962 2 34.9893 43.263 10.7627
2327 2 36.5387 44.6942 12.2657
1966 2 41.2643 43.1656 10.6636
212935 2 7.89242 47.9515 9.09109
213273 2 7.80478 47.9838 12.1863
212937 2 10.9793 47.9254 9.10732
213275 2 11.1149 47.9934 12.2204
212936 2 9.47467 49.4415 10.602
212939 2 14.278 47.9542 9.08831
212940 2 15.7579 49.4639 10.569
2004 2 19.0621 49.5966 10.6226
1982 2 25.4411 46.3303 10.6297
2006 2 22.2263 49.6163 10.602
2009 2 26.863 47.9181 9.07311
1986 2 31.7097 46.2721 10.6398
2353 2 36.5731 47.9286 12.2381
1990 2 38.0118 46.3638 10.7645
230199 2 7.89253 50.9903 9.01375
230225 2 8.02715 54.4426 9.08071
230201 2 11.0766 51.1398 9.10519
230229 2 14.3383 54.4065 9.04406
230204 2 15.8483 52.8129 10.6508
19631 2 17.3327 54.2469 12.0797
19269 2 20.5781 50.9611 9.13971
19295 2 20.5857 54.368 9.06249
19271 2 23.7664 50.981 9.04706
19297 2 23.7308 54.3362 9.16295
19609 2 23.6007 51.1012 12.2768
19273 2 26.9322 51.1398 9.04597
19275 2 30.179 51.1026 9.09259
19611 2 27.0168 51.1528 12.1833
19274 2 28.5118 52.5324 10.5911
19615 2 33.2826 51.1232 12.3328
19641 2 33.412 54.3147 12.2162
19305 2 36.5117 54.4012 9.06929
19617 2 36.5636 51.1841 12.2694
19645 2 39.7511 54.2437 12.1994
230226 2 9.47068 55.9152 10.6629
230591 2 10.9961 57.4804 12.1697
230230 2 15.9021 55.8657 10.6938
19657 2 17.3242 57.5517 12.2007
19321 2 20.5948 57.4347 9.07692
19296 2 22.1659 55.8597 10.5694
19661 2 23.8215 57.4517 12.2829
19325 2 26.9354 57.5195 8.98863
19331 2 36.5086 57.5213 9.11979
19304 2 34.9953 55.8871 10.5878
213222 2 9.45197 43.0941 13.7458
213560 2 9.50138 43.0911 16.9859
213562 2 12.5985 43.2269 16.9666
213589 2 14.1878 44.6959 15.5473
213564 2 15.8482 43.1483 16.9583
2655 2 20.6682 44.8305 15.3888
2659 2 27.0186 44.7388 15.4759
2661 2 30.2238 44.8524 15.4675
2663 2 33.2211 44.9201 15.461
2665 2 36.5964 44.7088 15.44
2302 2 38.0693 43.2497 13.9039
2304 2 41.3099 43.2012 13.9314
2642 2 41.2276 43.2122 17.0198
213613 2 11.0927 47.9663 15.4239
213276 2 12.6024 49.4913 13.8678
213588 2 12.6182 46.3004 16.9944
213612 2 9.54237 49.471 17.0824
2679 2 17.3123 48.1095 15.3687
213278 2 15.813 49.5885 13.8981
213616 2 15.8931 49.5227 16.9885
2342 2 18.9457 49.5311 13.9071
2318 2 22.2073 46.3008 13.8317
2344 2 22.2925 49.6407 13.8311
2324 2 31.7145 46.2693 13.9355
2350 2 31.7982 49.5937 13.7719
2662 2 31.7201 46.2442 17.0638
2688 2 31.7216 49.625 17.1889
2691 2 36.5745 48.0318 15.4992
2692 2 38.1019 49.4706 16.971
230903 2 11.1815 54.4428 15.3886
230879 2 14.2878 50.9813 15.3442
19969 2 17.4526 54.3183 15.5155
19944 2 18.8845 52.7648 17.0081
19947 2 23.671 51.1681 15.3935
19608 2 22.2393 52.6381 13.809
19946 2 22.32 52.565 17.01
19949 2 26.9879 51.1179 15.4768
19614 2 31.8724 52.7543 13.7126
19979 2 33.1854 54.2297 15.4777
19981 2 36.6582 54.2874 15.5277
19956 2 38.2217 52.8443 16.9737
19620 2 41.2447 52.8645 13.7921
19983 2 39.7394 54.2662 15.4505
230927 2 7.83546 57.6534 15.4567
230929 2 11.1376 57.5453 15.4401
230566 2 12.5241 55.9894 13.8072
230904 2 12.548 55.8816 16.9707
230906 2 15.9418 55.8827 16.9684
19997 2 20.6351 57.4234 15.4124
19636 2 25.3492 55.9246 13.7941
19972 2 22.0394 56.0526 17.0218
20005 2 33.3936 57.4947 15.5022
19978 2 31.7974 55.7897 17.0702
19982 2 38.2049 55.8162 16.9954
213925 2 11.1057 44.6798 18.5507
213898 2 9.44372 43.1528 20.1432
213900 2 12.6543 43.2059 20.1222
213902 2 15.9097 43.2023 20.2751
2966 2 19.0835 43.127 20.1941
2995 2 23.7622 44.818 18.7389
2999 2 30.2054 44.7316 18.6178
3001 2 33.2769 44.7682 18.5952
2974 2 31.7099 43.2154 20.0423
3005 2 39.7134 44.7991 18.6555
213951 2 11.0552 47.8792 18.5328
213924 2 9.60562 46.3388 20.1143
3017 2 17.3127 47.8955 18.5716
213928 2 15.919 46.3695 20.166
2994 2 22.2367 46.324 20.2372
3020 2 22.1528 49.573 20.206
3022 2 25.3097 49.5884 20.1761
3025 2 30.2251 48.0064 18.5679
3024 2 28.7912 49.4379 20.1877
3004 2 38.1029 46.2447 20.1739
3030 2 38.1738 49.6751 20.3056
3006 2 41.2475 46.3515 20.1835
231213 2 7.94879 51.0373 18.52
231239 2 7.83614 54.4128 18.6051
231241 2 11.1841 54.3152 18.5796
231216 2 12.6573 52.7902 20.1092
20281 2 17.4495 51.116 18.4067
20285 2 23.6592 51.142 18.6847
20284 2 22.197 52.8004 20.2327
20289 2 30.1041 51.0818 18.6888
20313 2 27.0483 54.1804 18.6275
20315 2 30.1897 54.3118 18.6021
20288 2 28.6627 52.7799 20.0695
20291 2 33.3342 51.0306 18.5578
20317 2 33.3338 54.4228 18.6678
20321 2 39.5986 54.2849 18.522
20333 2 17.4018 57.4925 18.5763
231244 2 15.8272 56.0458 20.1483
20335 2 20.6084 57.6029 18.5979
20339 2 27.0672 57.5459 18.583
20318 2 34.8891 55.8697 20.2102
214261 2 7.93659 44.6989 21.6916
3329 2 17.4925 44.7053 21.7266
3667 2 17.4992 44.7198 25.0369
3669 2 20.5942 44.9205 25.0005
3310 2 28.6202 43.2583 23.4561
3675 2 30.2381 44.7861 24.9021
3312 2 31.7287 43.214 23.4867
3341 2 36.5956 44.8711 21.7933
3681 2 39.6042 44.7721 24.9938
214289 2 11.0697 47.9037 21.7167
214290 2 12.6765 49.4791 23.322
3355 2 17.4448 47.8302 21.7567
3693 2 17.5939 47.8282 24.9553
3357 2 20.7044 47.9529 21.6697
3330 2 19.0125 46.3628 23.3739
3334 2 25.4538 46.4265 23.3811
3363 2 30.1817 47.9885 21.8272
3699 2 26.9059 47.8048 24.9413
3365 2 33.3081 47.9037 21.8149
3338 2 31.7594 46.4195 23.3078
3703 2 33.2841 47.8425 25.0198
3705 2 36.5632 47.8636 24.9746
3342 2 38.0703 46.3835 23.4862
3370 2 41.2482 49.6124 23.3206
231915 2 7.92924 54.305 25.0204
20619 2 17.4254 51.1768 21.8515
231556 2 15.9468 52.6755 23.3088
20647 2 20.6032 54.269 21.7575
20649 2 23.7704 54.276 21.7907
20961 2 23.686 51.1046 24.9922
20622 2 22.2184 52.757 23.3174
20653 2 30.1218 54.1984 21.7955
20963 2 27.0631 51.1982 24.8768
20965 2 30.1689 51.1602 24.9624
20626 2 28.6566 52.6408 23.4333
20629 2 33.403 51.1745 21.8599
20967 2 33.447 51.2149 24.9965
20969 2 36.5086 51.2759 24.9577
20630 2 34.8914 52.5896 23.4396
20632 2 38.1977 52.7246 23.3502
20633 2 39.6861 51.0963 21.8924
20659 2 39.6999 54.307 21.9081
231578 2 9.43853 55.8964 23.4202
231607 2 14.3763 57.5334 21.756
231582 2 15.7708 55.9435 23.2757
20673 2 20.5063 57.5051 21.7842
20646 2 19.1161 55.8869 23.2327
20650 2 25.377 55.7766 23.2853
20681 2 33.3843 57.5372 21.7428
20654 2 31.8194 55.9725 23.3705
214939 2 11.1227 44.6497 28.2626
214941 2 14.3404 44.6939 28.2047
214578 2 15.8161 43.1207 26.6161
4007 2 20.5178 44.8147 28.1239
4011 2 26.8701 44.7866 28.1702
4013 2 30.257 44.8966 28.163
4015 2 33.3264 44.891 28.1372
3654 2 38.1729 43.2856 26.5867
4019 2 39.6521 44.6526 28.225
214965 2 11.0539 47.9149 28.2312
214967 2 14.3849 47.913 28.2286
3668 2 19.0252 46.2382 26.4917
3670 2 22.1358 46.2288 26.593
3672 2 25.4667 46.3494 26.5558
3696 2 22.2081 49.6513 26.5734
3676 2 31.7467 46.2852 26.5851
3678 2 34.9298 46.4169 26.5163
3708 2 41.3049 49.6372 26.5592
232229 2 11.0905 51.1672 28.2252
231890 2 9.53356 52.7644 26.597
232255 2 11.0665 54.3549 28.2225
21295 2 17.4967 51.1015 28.163
21297 2 20.738 51.1366 28.1402
20958 2 19.1155 52.7007 26.6773
21323 2 20.5882 54.2249 28.135
21325 2 23.7502 54.2327 28.2071
21301 2 27.0287 51.046 28.1375
21327 2 27.0861 54.3512 28.1581
21331 2 33.3622 54.2451 28.1845
20968 2 34.9345 52.7288 26.5581
21333 2 36.5045 54.2062 28.0651
20970 2 38.0619 52.7716 26.585
232283 2 14.2279 57.4963 28.1671
21347 2 17.5214 57.5512 28.1374
21349 2 20.6606 57.5823 28.0269
21359 2 36.4498 57.5968 28.1745
21361 2 39.7652 57.4377 28.0963
20998 2 41.369 55.9091 26.6396
215275 2 7.79537 44.7559 31.4721
214914 2 12.7328 43.1222 29.7139
4343 2 17.4216 44.7208 31.3147
215254 2 15.934 43.2266 32.9168
3980 2 19.0742 43.2189 29.7636
3984 2 25.3538 43.1669 29.6633
4320 2 22.1789 43.0837 32.9151
4351 2 30.2337 44.8191 31.2894
3990 2 34.8612 43.2661 29.6821
3992 2 38.1676 43.2287 29.7051
4330 2 38.0747 43.1088 32.9951
3994 2 41.3384 43.2419 29.7063
214964 2 9.611 49.5135 29.6973
215278 2 12.7406 46.2917 32.8816
214942 2 15.8874 46.2555 29.723
214968 2 15.909 49.5057 29.6965
4371 2 20.5743 47.9544 31.4572
4370 2 19.0698 49.4892 32.9751
4010 2 25.3857 46.3907 29.7549
4373 2 23.9078 47.8972 31.273
4377 2 30.1814 47.884 31.3117
4014 2 31.7234 46.3284 29.8196
4379 2 33.3662 47.9075 31.3801
4042 2 34.8989 49.5111 29.7915
4354 2 34.8592 46.3487 32.9318
4380 2 34.8836 49.5934 32.9089
4046 2 41.3871 49.6281 29.7946
4384 2 41.3646 49.6064 32.951
232230 2 12.696 52.7761 29.7774
232566 2 9.54045 52.7888 33.0283
232595 2 14.2772 54.2001 31.3291
232570 2 15.9223 52.7374 32.902
21661 2 20.7197 54.2942 31.3728
21298 2 22.1782 52.7849 29.6873
21638 2 25.4318 52.7895 33.1325
21667 2 30.0971 54.375 31.2949
21304 2 31.7448 52.7924 29.7601
21306 2 34.9845 52.8776 29.7105
21671 2 36.4624 54.3485 31.3563
21310 2 41.4136 52.8223 29.715
232617 2 7.95918 57.5803 31.2954
232254 2 9.49069 55.9196 29.7435
232621 2 14.2783 57.5956 31.4539
21687 2 20.7468 57.5026 31.5148
21662 2 22.2373 55.9004 32.9996
21328 2 28.5702 55.8398 29.7405
21666 2 28.6822 55.7667 32.9952
21674 2 41.347 55.8456 32.9606
4681 2 17.388 44.6057 34.6178
215592 2 15.838 43.1537 36.1439
4656 2 18.9627 43.1817 36.0759
5023 2 23.8862 44.7012 37.8017
4687 2 27.0104 44.7034 34.5807
4689 2 30.095 44.7885 34.6738
4662 2 28.5179 43.2628 36.1371
5025 2 27.0547 44.7008 37.7388
4691 2 33.4419 44.8377 34.4312
5029 2 33.3642 44.7467 37.8196
5031 2 36.5421 44.8265 37.7974
4670 2 41.3389 43.266 36.0473
215639 2 7.81628 47.8103 34.5115
215616 2 12.668 46.3419 36.1923
4707 2 17.4529 48.0152 34.5847
215618 2 16.033 46.3251 36.0178
215644 2 15.8914 49.589 36.2069
5047 2 20.6784 48.0351 37.7659
4711 2 23.7781 48.0045 34.7083
4710 2 22.2255 49.4571 36.1396
4712 2 25.4748 49.457 36.077
4713 2 27.0019 47.9947 34.5882
5051 2 26.9085 48.0266 37.7192
5053 2 30.26 48.0162 37.7557
4716 2 31.761 49.4974 36.1742
4718 2 34.9677 49.5557 36.2092
4721 2 39.7571 48.0482 34.4572
5059 2 39.7237 47.9194 37.8277
232929 2 7.82147 54.2223 34.4732
233241 2 7.85109 51.2045 37.6586
232905 2 11.0344 51.1459 34.4966
232931 2 11.0244 54.2964 34.422
233245 2 14.2801 51.0676 37.6611
22309 2 17.4808 51.0615 37.7284
21972 2 18.9991 52.6441 36.2066
22001 2 23.7215 54.2871 34.5786
21974 2 22.3125 52.7638 36.1106
21977 2 26.8829 51.1121 34.575
22003 2 27.0225 54.346 34.4795
22005 2 30.1018 54.3951 34.6069
22341 2 26.9682 54.2892 37.7888
22007 2 33.3532 54.3425 34.5975
21982 2 34.927 52.8325 36.1589
21984 2 38.1354 52.8411 36.1762
22347 2 36.4901 54.2465 37.6785
22011 2 39.7304 54.397 34.5486
232955 2 7.97688 57.6351 34.4899
233297 2 14.2671 57.4792 37.5883
232934 2 15.7796 55.9385 36.1647
22025 2 20.7429 57.4112 34.5832
21998 2 19.1834 56.0294 36.0826
22363 2 20.671 57.3629 37.6743
22027 2 23.7022 57.4791 34.5246
22000 2 22.2691 55.9597 36.1228
22365 2 23.735 57.3678 37.7389
22004 2 28.517 55.7802 36.0855
22006 2 31.7627 55.8332 36.0408
22035 2 36.4759 57.527 34.6071
22012 2 41.2611 55.8062 36.0271
215926 2 9.43605 43.0978 39.2741
216293 2 14.2275 44.6744 41.0461
5357 2 17.4104 44.6323 40.9597
4998 2 25.5445 43.258 39.1957
5363 2 26.857 44.6977 40.9354
5365 2 30.197 44.8321 40.9254
5004 2 34.9386 43.3087 39.2617
5008 2 41.2826 43.2419 39.4146
216315 2 7.9691 47.9485 40.8693
215952 2 9.47327 46.4327 39.4047
216317 2 11.0678 47.8879 40.894
216319 2 14.2145 47.8654 40.9782
5383 2 17.5643 48.1023 40.9007
5046 2 19.0446 49.5774 39.2993
5048 2 22.1319 49.5735 39.3473
5389 2 26.9946 47.8962 41.0536
5054 2 31.6804 49.4843 39.3335
5032 2 38.1342 46.4376 39.322
5397 2 39.6234 47.9381 40.9084
5060 2 41.2472 49.417 39.3474
233605 2 7.84895 54.4581 40.9005
233581 2 10.9977 51.0812 40.8984
233583 2 14.3695 51.2246 40.9504
22673 2 17.39 54.2617 40.9372
22649 2 20.5319 50.993 40.865
22314 2 25.5123 52.7859 39.4087
22653 2 27.0294 51.1762 40.9787
22679 2 27.0017 54.2526 40.8903
22683 2 33.3857 54.1823 40.9629
22659 2 36.4622 51.1425 40.8883
22320 2 35.0008 52.7945 39.4423
22685 2 36.5173 54.388 40.9836
22324 2 41.1435 52.8172 39.4091
22687 2 39.7067 54.3715 40.8691
233633 2 11.0765 57.5335 40.9877
233635 2 14.2223 57.4963 41.0319
22701 2 20.6939 57.4381 40.9418
22338 2 22.1557 55.9805 39.2449
22342 2 28.4656 55.8444 39.4044
22705 2 27.0485 57.4972 40.8529
22709 2 33.3162 57.5701 40.8482
22713 2 39.7016 57.5267 40.8903
22350 2 41.2257 55.9802 39.4437
216266 2 12.7354 43.1552 42.5286
216602 2 9.40756 43.057 45.6949
216268 2 15.8414 43.2282 42.4544
216606 2 15.7568 43.1179 45.6264
5670 2 19.0477 43.2282 45.6643
5336 2 25.5174 43.2503 42.5485
5672 2 22.3361 43.1932 45.7098
5701 2 27.002 44.7362 44.1373
5676 2 28.4973 43.1396 45.7849
5705 2 33.3602 44.7999 44.135
5342 2 34.8668 43.1683 42.6943
5344 2 38.0832 43.218 42.5594
5709 2 39.5831 44.8157 44.104
216653 2 7.95339 48.0028 44.06
216292 2 12.7154 46.3633 42.3776
216316 2 9.50426 49.4241 42.4088
216632 2 15.8463 46.4038 45.7675
5384 2 19.0486 49.5554 42.4478
5696 2 18.9431 46.3792 45.6867
5360 2 22.3013 46.4248 42.5468
5362 2 25.487 46.3297 42.4987
5725 2 23.8146 47.8114 44.0043
5698 2 22.4138 46.3908 45.6965
5390 2 28.4275 49.5676 42.4596
5702 2 28.5293 46.2733 45.6461
5728 2 28.6338 49.5694 45.6517
5731 2 33.3133 47.9477 44.0362
5392 2 31.8073 49.4421 42.6071
5704 2 31.8872 46.4045 45.6852
5368 2 34.7969 46.3996 42.6306
5370 2 38.1728 46.3858 42.5394
5394 2 35.0171 49.6089 42.5476
5708 2 38.0742 46.2925 45.7089
5734 2 37.9771 49.5817 45.6508
233943 2 7.89507 54.4196 44.0457
233945 2 10.9851 54.4331 43.95
233947 2 14.2727 54.3424 44.0359
233584 2 15.8041 52.7801 42.4324
23013 2 20.6492 54.2916 44.1434
22986 2 19.0083 52.7367 45.6635
22988 2 22.1991 52.8071 45.6145
22991 2 27.0607 51.0405 44.0625
23017 2 26.9809 54.2938 44.0994
22654 2 28.4105 52.7097 42.5114
22656 2 31.8782 52.7732 42.4712
22997 2 36.5018 51.1485 44.2215
22996 2 35.0143 52.6627 45.6633
22998 2 37.9666 52.7367 45.6859
233606 2 9.42503 55.8839 42.4679
233608 2 12.6793 55.9321 42.4918
233944 2 9.48874 55.8205 45.5862
23037 2 17.4397 57.4986 44.0175
22676 2 22.1717 55.8951 42.4602
23014 2 22.1644 55.7896 45.6982
23016 2 25.4139 55.8027 45.6708
23047 2 33.4062 57.5133 44.159
22686 2 38.1318 55.89 42.3585
23026 2 41.2473 56.0386 45.7857
216965 2 7.97868 44.7764 47.2592
216942 2 12.5305 43.1568 48.8068
216944 2 15.9456 43.0494 48.9835
6037 2 23.7814 44.7514 47.2418
6014 2 28.6013 43.0924 48.8409
6045 2 36.4331 44.7709 47.3155
6018 2 34.822 43.1316 48.8565
6022 2 41.2149 43.1164 48.974
216993 2 11.0019 47.9049 47.3123
216966 2 9.47104 46.3303 48.7659
6059 2 17.3895 47.8356 47.1951
6063 2 23.7052 47.8255 47.3091
6036 2 22.2526 46.2393 48.8201
6040 2 28.6014 46.3209 48.9657
6066 2 28.5663 49.5021 48.8399
6069 2 33.2907 47.9122 47.3593
6068 2 31.7892 49.4768 48.7828
6044 2 34.8092 46.3882 48.8814
6070 2 34.7949 49.4331 48.8395
6072 2 38.078 49.5318 48.8187
6048 2 41.3405 46.4377 48.9234
234257 2 10.9864 51.1766 47.2619
234283 2 11.0038 54.3859 47.2377
234259 2 14.2139 51.1493 47.2359
23323 2 17.4615 51.1981 47.1969
23353 2 23.6882 54.3107 47.2233
23326 2 22.2478 52.7934 48.8391
23331 2 30.0621 50.9896 47.3546
23330 2 28.626 52.6048 48.8364
23361 2 36.4755 54.1022 47.2957
23334 2 34.8955 52.7756 48.8955
23336 2 38.0299 52.8141 48.8686
23701 2 39.6275 54.249 50.2935
23338 2 41.2443 52.8388 48.9447
23375 2 17.4918 57.5307 47.3861
23350 2 18.927 55.9333 48.836
23352 2 22.2818 55.8262 48.8433
23385 2 33.3788 57.6531 47.3129
23387 2 36.394 57.6937 47.3081
23389 2 39.7371 57.4619 47.2042
217278 2 9.45763 43.0866 52.0704
6373 2 20.6689 44.7946 50.4501
6346 2 19.0512 43.1871 52.0011
6713 2 23.8331 44.6604 53.6483
6350 2 25.2949 43.1767 51.9868
6379 2 30.0323 44.6949 50.3917
6352 2 28.6428 43.2163 51.9706
6381 2 33.4317 44.7481 50.3595
6719 2 33.3017 44.8301 53.5642
6385 2 39.8154 44.7733 50.3519
217304 2 9.45949 46.4077 52.1125
217332 2 12.7118 49.5409 51.9692
217333 2 14.2207 47.9791 50.4719
217308 2 15.7783 46.425 51.9929
6737 2 20.6422 48.029 53.7761
6739 2 23.8403 48.1 53.7264
6403 2 27.1498 47.9812 50.3599
6404 2 28.5126 49.5252 52.0244
6407 2 33.2846 48.0731 50.3845
6406 2 31.7747 49.5734 52.0448
6410 2 38.0842 49.5758 52.0099
234593 2 7.75059 51.0847 50.3974
234619 2 7.80901 54.422 50.4265
234957 2 7.82914 54.4227 53.5407
234933 2 11.1145 51.0816 53.6398
234596 2 12.6011 52.6146 52.091
234597 2 14.1946 51.1891 50.562
23999 2 17.45 51.1876 53.6031
234598 2 15.8662 52.6834 52.1008
24025 2 17.4084 54.2894 53.6052
24001 2 20.6562 51.1446 53.7054
23662 2 19.0491 52.6651 52.1663
23691 2 23.6745 54.3074 50.3423
24029 2 23.7679 54.446 53.745
24007 2 30.1073 50.9909 53.6463
24031 2 26.9489 54.3834 53.6388
23697 2 33.3711 54.3292 50.4849
24009 2 33.1542 50.9996 53.642
24039 2 39.594 54.3619 53.7594
234647 2 11.0344 57.4167 50.5592
234620 2 9.43115 55.8804 52.0277
234622 2 12.61 56.0084 52.0356
23719 2 26.8715 57.6066 50.5427
23696 2 31.7724 55.8069 51.9536
23698 2 34.9068 55.8069 51.9707
23727 2 39.7107 57.5313 50.4449
6686 2 22.2127 43.1624 55.2387
6688 2 25.3618 43.2068 55.1079
6690 2 28.5887 43.1899 55.2183
7059 2 36.4183 44.8055 56.9001
218005 2 7.81373 47.9627 56.7903
218007 2 11.2315 47.9301 56.7481
217644 2 12.6355 46.4011 55.2503
217670 2 12.5869 49.5915 55.2572
6736 2 19.0643 49.5906 55.1048
7077 2 23.7702 48.0053 56.7431
6738 2 22.2482 49.5033 55.2096
6740 2 25.3627 49.5124 55.3028
7079 2 27.0373 48.064 56.7513
7081 2 30.1492 48.0486 56.7647
6742 2 28.5548 49.5594 55.2735
6744 2 31.7117 49.6133 55.2577
6748 2 38.0735 49.5421 55.3198
235295 2 7.92174 54.3968 56.8394
24341 2 23.8119 51.0366 56.7017
24343 2 27.0348 51.0134 56.7383
24369 2 26.8804 54.4485 56.8326
24347 2 33.2558 51.1855 56.8636
24373 2 33.3628 54.3724 56.7716
24012 2 38.1633 52.8251 55.1748
234960 2 12.5938 55.8946 55.2377
234962 2 15.89 55.8705 55.2086
24389 2 17.3409 57.3585 56.8683
24391 2 20.6108 57.3964 56.8515
24028 2 22.1566 55.9195 55.2437
24030 2 25.4511 55.8631 55.202
24395 2 26.8983 57.5325 56.8598
24397 2 30.2074 57.534 56.7623
24034 2 31.7786 55.9341 55.3527
24399 2 33.2764 57.4736 56.7333
24036 2 34.8706 55.9742 55.3741
24401 2 36.5658 57.4431 56.6757
24038 2 38.0881 55.9144 55.225
54412 2 47.7441 8.14719 7.48222
54416 2 54.0308 8.11783 7.39361
1374 2 50.8738 11.34 7.39961
1376 2 54.0329 11.3142 7.39961
1396 2 44.3955 14.5392 7.36194
1398 2 47.7888 14.584 7.57869
1402 2 54.1334 14.6265 7.49705
1422 2 44.5519 17.7091 7.38074
1426 2 50.8336 17.7596 7.54326
1450 2 47.689 20.8598 7.53738
1428 2 54.1176 17.7035 7.40698
1454 2 54.038 20.8706 7.4671
1476 2 47.6137 24.1242 7.55711
1506 2 54.0684 27.2766 7.59838
1528 2 47.7458 30.374 7.53812
54749 2 46.3199 6.53531 9.02247
55087 2 46.1861 6.57893 12.3089
55089 2 49.2825 6.51519 12.2038
54753 2 52.4436 6.54078 9.04034
55091 2 52.4393 6.54253 12.227
55093 2 55.7374 6.59087 12.2242
2073 2 46.1044 13.0208 12.2244
1710 2 47.7224 11.5255 10.7368
2075 2 49.2731 13.0357 12.1959
2079 2 55.6825 13.0059 12.2943
2071 2 42.9636 13.0904 12.199
1734 2 44.519 14.488 10.745
1763 2 49.3535 16.0785 9.06288
1738 2 50.8503 14.6441 10.7128
1767 2 55.5518 16.162 8.96869
2103 2 52.4298 16.0936 12.2698
1760 2 44.4575 17.7305 10.6601
1789 2 49.278 19.3844 9.04878
1788 2 47.6483 20.923 10.6509
2129 2 52.4266 19.3065 12.3132
1813 2 46.1859 22.458 9.03568
2151 2 46.0949 22.3225 12.2829
1816 2 51.0335 24.1049 10.6031
1817 2 52.5066 22.4506 9.11145
1863 2 42.831 28.9374 9.11824
2175 2 42.9487 25.7089 12.3074
1839 2 46.1683 25.6916 9.09437
2177 2 46.1147 25.7842 12.215
1867 2 49.1343 28.8754 9.1145
1840 2 47.6645 27.2362 10.6406
2205 2 49.2351 28.8332 12.1546
1843 2 52.4684 25.6926 9.07822
1845 2 55.7547 25.7711 9.04137
1869 2 52.6736 28.8804 9.06793
2181 2 52.3184 25.5912 12.1977
1864 2 44.4402 30.4075 10.5884
1866 2 47.7932 30.3728 10.6988
1897 2 55.6152 32.0191 9.12565
1870 2 54.1326 30.5797 10.6632
2233 2 52.425 32.0615 12.2363
2235 2 55.7461 32.0775 12.1994
1915 2 42.9212 35.2509 9.0796
2255 2 45.987 35.2798 12.3393
1919 2 49.2643 35.2687 9.076
2257 2 49.3492 35.2764 12.1815
1920 2 50.8132 36.7844 10.6014
1921 2 52.4656 35.2292 9.15631
2279 2 42.9313 38.4253 12.3156
1943 2 46.0637 38.3867 9.13432
1969 2 46.2134 41.6166 9.15857
1945 2 49.3077 38.3384 9.0645
1971 2 49.3266 41.6532 9.11533
2283 2 49.3356 38.4161 12.2969
1947 2 52.3789 38.3228 9.13441
2287 2 55.5305 38.3289 12.3139
2313 2 55.6623 41.6065 12.2331
55423 2 42.8676 6.55448 15.4768
55088 2 47.7425 8.08578 13.7844
55426 2 47.7398 8.23222 17.025
55428 2 50.8781 8.22027 17.0034
55431 2 55.6315 6.55604 15.5206
2383 2 42.9444 9.83277 15.4032
2387 2 49.2542 9.62392 15.4525
2390 2 54.0517 11.3887 17.1227
2072 2 44.4653 14.4604 13.74
2410 2 44.5644 14.5627 17.1246
2074 2 47.7057 14.4734 13.736
2414 2 50.9428 14.5116 17.0723
2078 2 54.0558 14.573 13.8112
2098 2 44.5288 17.7839 13.9197
2463 2 45.9625 19.2676 15.388
2124 2 44.6112 20.8499 13.8446
2436 2 44.571 17.743 17.0143
2462 2 44.5657 20.7922 17.0094
2100 2 47.5542 17.8312 13.9073
2102 2 50.9923 17.6883 13.6702
2440 2 50.9023 17.7644 17.0388
2469 2 55.7909 19.339 15.3728
2130 2 54.0919 20.8167 13.8373
2488 2 44.5351 24.0678 17.051
2491 2 49.333 22.5058 15.3909
2154 2 50.862 24.0792 13.8298
2176 2 44.5128 27.1349 13.742
2516 2 47.6846 27.3743 17.1416
2202 2 44.5203 30.4594 13.8762
2228 2 44.5449 33.6777 13.7718
2566 2 44.4584 33.6561 17.1136
2569 2 49.2359 32.0605 15.4183
2568 2 47.7871 33.6254 16.9476
2546 2 54.0182 30.4719 17.0489
2572 2 54.0567 33.7062 16.9573
2254 2 44.5288 36.8586 13.8159
2595 2 49.1948 35.2534 15.5664
2596 2 50.7228 36.777 16.9648
2599 2 55.6145 35.298 15.4916
2260 2 54.1392 36.8404 13.8307
2598 2 54.1197 36.7348 17.0177
2619 2 45.9899 38.4108 15.3677
2280 2 44.4695 39.9758 13.8346
2284 2 50.8694 40.0304 13.8253
2622 2 50.8777 40.0195 17.0733
2649 2 52.3717 41.5052 15.4674
2624 2 53.9116 40.0933 16.9993
55761 2 42.8178 6.62425 18.6348
55764 2 47.6917 8.19526 20.2234
55766 2 50.9889 8.20097 20.3301
2747 2 42.9824 12.994 18.5746
2722 2 44.4913 11.3834 20.2629
2724 2 47.722 11.4832 20.3001
2726 2 50.9345 11.3628 20.2584
2729 2 55.6723 9.86068 18.5485
2753 2 52.4568 12.8681 18.5958
2755 2 55.6665 12.8357 18.5089
2775 2 45.9737 16.1037 18.5555
2781 2 55.7265 16.2333 18.6812
2801 2 45.9887 19.3234 18.578
2800 2 44.6018 20.8077 20.2797
2778 2 50.8656 17.6905 20.225
2780 2 54.1483 17.6397 20.1441
2806 2 54.0398 20.9427 20.1874
2826 2 44.5226 24.0569 20.3072
2831 2 52.5743 22.4861 18.7692
2832 2 53.9194 24.1809 20.1871
2877 2 42.8565 28.8578 18.6499
2879 2 46.1625 28.8759 18.6709
2881 2 49.2011 28.8478 18.6509
2857 2 52.5321 25.6759 18.7249
2883 2 52.5472 28.9044 18.6325
2858 2 53.937 27.3101 20.1849
2880 2 47.685 30.3862 20.1359
2906 2 47.6544 33.7142 20.3276
2929 2 42.9256 35.1051 18.5767
2908 2 50.8827 33.7338 20.3049
2934 2 50.8589 36.7937 20.1886
2955 2 42.8432 38.5815 18.6753
2957 2 46.06 38.4197 18.7075
2983 2 46.1304 41.5643 18.6351
2956 2 44.5209 39.9697 20.095
2959 2 49.4322 38.3476 18.5646
2987 2 52.3852 41.5189 18.4955
56437 2 42.8812 6.53051 24.9763
56100 2 44.4608 8.22021 23.391
56102 2 47.797 8.26827 23.48
56105 2 52.3435 6.60573 21.7258
56107 2 55.6748 6.62321 21.7268
56445 2 55.5999 6.64312 25.0817
3059 2 42.9299 9.72887 21.7347
3087 2 46.0873 12.8731 21.7286
3089 2 49.3426 12.886 21.7208
3401 2 49.2288 9.72767 24.9449
3427 2 49.2491 12.9291 25.0345
3065 2 52.4343 9.82733 21.724
3093 2 55.5646 12.8699 21.8831
3403 2 52.5243 9.83954 24.9337
3066 2 53.9695 11.3445 23.4036
3429 2 52.5329 12.8932 24.891
3111 2 42.917 16.1099 21.8071
3451 2 45.9835 16.0835 25.0847
3453 2 49.3575 16.1594 24.9799
3457 2 55.67 16.0901 25.0533
3139 2 46.0551 19.252 21.8011
3479 2 49.2756 19.2231 25.0661
3116 2 50.7542 17.7311 23.4921
3165 2 45.9765 22.4826 21.7803
3164 2 44.5056 23.9908 23.3703
3167 2 49.2785 22.4147 21.8397
3505 2 49.1538 22.4452 25.1013
3509 2 55.7356 22.5265 25.0709
3189 2 42.8991 25.5401 21.7964
3193 2 49.2202 25.6813 21.8022
3531 2 49.2196 25.6352 25.0259
3195 2 52.5232 25.6687 21.7712
3221 2 52.4636 28.8644 21.8009
3535 2 55.7253 25.6783 24.9315
3241 2 42.8134 32.0424 21.8879
3579 2 42.8315 32.0019 24.8918
3243 2 46.1892 32.0395 21.8086
3216 2 44.4028 30.6157 23.372
3218 2 47.6383 30.5429 23.3703
3220 2 50.9271 30.4021 23.3125
3246 2 50.8054 33.7607 23.37
3249 2 55.624 32.0419 21.7369
3587 2 55.5861 32.0752 24.9901
3607 2 46.0237 35.1815 24.9673
3271 2 49.3285 35.2169 21.743
3609 2 49.4217 35.2315 24.9174
3272 2 50.7629 36.6796 23.3409
3273 2 52.3303 35.2784 21.8291
3275 2 55.6953 35.4235 21.8406
3274 2 54.0369 36.6957 23.2532
3631 2 42.7613 38.2302 25.0301
3657 2 42.9181 41.6294 25.012
3633 2 46.1003 38.4185 24.9863
3323 2 49.3217 41.601 21.8041
3635 2 49.426 38.229 24.9521
56777 2 46.1113 6.64505 28.1961
56779 2 49.2744 6.6224 28.2675
56781 2 52.4634 6.72317 28.2445
3735 2 42.9143 9.7931 28.204
3398 2 44.4832 11.3419 26.7026
3763 2 46.0786 12.9453 28.1702
3741 2 52.3689 9.77053 28.3135
3767 2 52.3507 12.9032 28.2312
3769 2 55.6973 12.9741 28.0824
3424 2 44.6404 14.5789 26.6961
3789 2 46.0174 16.1554 28.1485
3791 2 49.341 16.148 28.1902
3813 2 42.9805 19.2523 28.1583
3450 2 44.5632 17.6563 26.6605
3476 2 44.4797 20.8126 26.7442
3454 2 50.7107 17.6553 26.5957
3478 2 47.7873 20.8389 26.5223
3456 2 54.1149 17.6532 26.4967
3502 2 44.4453 24.05 26.6871
3504 2 47.8017 24.0891 26.566
3891 2 42.9681 28.7863 28.1911
3869 2 49.1438 25.5779 28.2294
3873 2 55.615 25.5749 28.1814
3897 2 52.3316 28.9118 28.1517
3899 2 55.6284 28.9006 28.124
3917 2 42.9096 32.0051 28.2077
3558 2 50.9009 30.4325 26.6828
3925 2 55.5779 32.1495 28.2739
3943 2 42.8232 35.2836 28.1314
3610 2 50.8139 36.7633 26.4963
57113 2 42.9936 6.59558 31.3896
57115 2 46.1322 6.66047 31.3922
57114 2 44.5621 8.05576 32.9936
56778 2 47.6557 8.00951 29.6898
56780 2 50.9022 8.07268 29.6881
57119 2 52.4464 6.67092 31.3056
56782 2 53.9487 8.17812 29.7141
3738 2 47.6799 11.4448 29.792
4103 2 49.3144 12.883 31.3087
3740 2 50.9333 11.4013 29.758
4107 2 55.5723 12.9801 31.4213
4125 2 42.8725 16.1875 31.4139
4127 2 46.1448 16.0631 31.4202
4104 2 50.9515 14.5014 32.9552
4131 2 52.4563 16.039 31.5185
4106 2 54.0276 14.5525 32.9885
4153 2 46.1551 19.3772 31.3959
4152 2 44.6474 20.7952 32.8887
3816 2 47.6529 20.8826 29.9282
3818 2 50.8435 20.9102 29.8396
4130 2 50.904 17.7541 32.9951
4159 2 55.6513 19.2705 31.4968
4158 2 53.9876 20.8956 32.9794
4178 2 44.4812 24.0406 32.9748
4181 2 49.2233 22.5036 31.3448
3842 2 47.755 24.0664 29.8464
4180 2 47.7921 23.9924 32.9168
4182 2 50.8607 24.0775 32.9661
3846 2 54.0924 24.0744 29.746
4229 2 42.9645 28.7046 31.414
3866 2 44.4375 27.2998 29.8097
4204 2 44.5056 27.2951 32.9186
4207 2 49.1543 25.6185 31.4039
3868 2 47.7814 27.1302 29.7652
4206 2 47.741 27.1947 32.9318
4210 2 53.9569 27.2224 32.9871
4255 2 42.8896 32.0446 31.3364
3894 2 47.7001 30.5191 29.8313
4259 2 49.244 31.9778 31.37
3922 2 50.7878 33.597 29.8726
4232 2 47.6989 30.4654 32.9256
4234 2 50.8544 30.5025 32.8186
4261 2 52.4969 32.0731 31.3967
4263 2 55.5024 32.0609 31.4562
3924 2 54.0906 33.48 29.7947
4236 2 54.002 30.5096 32.8466
4262 2 53.9609 33.5654 32.9062
4283 2 46.0871 35.2634 31.3772
4282 2 44.4747 36.7738 32.8811
4285 2 49.3331 35.3564 31.2886
3946 2 47.695 36.6909 29.8608
3948 2 50.8572 36.8358 29.8811
4284 2 47.7331 36.74 32.8631
3950 2 54.0127 36.9226 29.8265
4307 2 42.9205 38.4546 31.3321
3970 2 44.4217 39.8833 29.778
4308 2 44.45 39.9721 32.9527
3972 2 47.6942 39.9865 29.7841
3974 2 50.9052 39.9583 29.7552
4312 2 50.9151 39.9052 32.9066
4313 2 52.3824 38.4767 31.1831
4315 2 55.6304 38.4344 31.193
3976 2 54.0645 39.9521 29.8444
4341 2 55.6232 41.5479 31.2529
57451 2 42.9342 6.63095 34.5248
57789 2 42.8111 6.53738 37.8361
57453 2 46.0218 6.59185 34.497
57791 2 46.1189 6.63226 37.8025
57455 2 49.2781 6.58141 34.5947
57456 2 50.7956 8.22378 36.134
57458 2 54.055 8.2496 36.1627
4413 2 46.0204 9.68139 34.4841
4439 2 46.097 12.9265 34.5384
4415 2 49.3647 9.75179 34.6051
4779 2 49.2545 12.8875 37.7409
4443 2 52.4875 13.0614 34.4458
4755 2 52.5168 9.67646 37.6935
4781 2 52.5313 12.8663 37.806
4463 2 42.814 16.1339 34.5825
4465 2 46.1712 16.1806 34.6172
4471 2 55.6457 16.1612 34.6346
4490 2 44.4445 20.9308 36.2585
4493 2 49.3632 19.1257 34.5933
4466 2 47.694 17.7017 36.0173
4468 2 50.8606 17.7604 36.1034
4470 2 54.0995 17.6247 36.0477
4496 2 54.0389 20.9727 36.1594
4853 2 42.7899 22.3147 37.7144
4519 2 49.2572 22.6461 34.5102
4857 2 49.2363 22.5868 37.7099
4518 2 47.7795 23.9899 36.1203
4521 2 52.5105 22.4059 34.5299
4861 2 55.6485 22.3873 37.5733
4879 2 42.884 25.7155 37.6767
4905 2 42.8585 28.761 37.6802
4907 2 46.1042 28.8305 37.7433
4547 2 52.4342 25.6896 34.4474
4885 2 52.4494 25.6806 37.8207
4913 2 55.6222 28.8676 37.7566
4593 2 42.9366 32.0003 34.61
4931 2 42.8975 32.0535 37.7573
4935 2 49.3576 31.9642 37.7637
4572 2 50.8818 30.514 36.2174
4937 2 52.4357 31.9531 37.7645
4959 2 46.106 35.2232 37.8363
4624 2 50.8488 36.8145 36.1123
4965 2 55.6461 35.2469 37.6859
4626 2 54.1402 36.7398 36.2392
4673 2 45.9709 41.564 34.4486
4985 2 46.1165 38.3876 37.7916
4650 2 50.8656 39.9937 36.1657
57792 2 47.6377 8.08959 39.3181
58135 2 55.5571 6.63692 40.9865
57796 2 54.0502 8.17267 39.3247
5087 2 42.7488 9.74569 41.0266
5089 2 46.2242 9.69054 40.8105
4752 2 47.7297 11.3542 39.3271
4756 2 53.999 11.3549 39.2295
5165 2 42.8507 19.3655 40.9048
5167 2 46.1234 19.283 40.9262
4804 2 47.6352 17.7755 39.3584
4806 2 50.9519 17.8023 39.3769
5171 2 52.4648 19.2793 40.7778
4808 2 54.114 17.8397 39.3993
5173 2 55.6068 19.2129 40.8634
5195 2 49.2098 22.5049 40.8744
4856 2 47.7529 23.9837 39.3276
5197 2 52.5416 22.5466 40.9747
5199 2 55.6715 22.4998 41.0537
5217 2 42.9366 25.5965 40.976
5243 2 42.9318 28.8403 40.9968
4884 2 50.9069 27.1549 39.3011
5225 2 55.6713 25.5525 40.9669
5251 2 55.5985 28.8294 40.9149
5271 2 46.0688 32.0718 40.991
4910 2 50.9165 30.5749 39.3269
5275 2 52.3887 32.0715 40.9678
5277 2 55.611 32.119 40.9826
5295 2 42.9523 35.2253 40.9573
4960 2 47.5425 36.8184 39.2973
4962 2 50.9972 36.7306 39.4876
5301 2 52.4316 35.162 41.0235
5303 2 55.5355 35.1585 41.0608
5323 2 46.2209 38.3038 40.9993
4988 2 50.8283 39.9835 39.3864
4990 2 54.0876 39.9661 39.3378
1378 2 57.3495 11.3549 7.52756
1508 2 57.263 27.2636 7.49627
1612 2 57.3631 39.9795 7.38184
1716 2 57.2625 11.3953 10.5782
1794 2 57.2898 20.8169 10.5722
1820 2 57.1696 24.1083 10.5829
1846 2 57.2941 27.2779 10.5403
1898 2 57.1375 33.5371 10.6776
55094 2 57.1309 8.06661 13.8552
2392 2 57.2161 11.4257 17.1141
2106 2 57.2612 17.691 13.8947
2132 2 57.277 20.874 13.9342
2444 2 57.2109 17.6819 17.0025
2158 2 57.2901 24.1201 13.8263
2496 2 57.2679 24.0358 17.0426
2184 2 57.3122 27.3058 13.913
2522 2 57.3455 27.3824 17.0158
2574 2 57.2877 33.7269 16.8478
2600 2 57.2781 36.805 16.8804
2626 2 57.3784 39.9598 17.002
2782 2 57.2349 17.6799 20.1563
2834 2 57.3252 24.0908 20.1495
2938 2 57.162 36.7917 20.17
3120 2 57.2354 17.6033 23.4864
3172 2 57.1923 24.1078 23.5127
3198 2 57.2387 27.1994 23.4752
3276 2 57.3195 36.7544 23.437
56446 2 57.1981 8.16883 26.523
3432 2 57.2195 14.5389 26.5075
3484 2 57.249 20.8586 26.6173
3510 2 57.1204 24.1784 26.5478
3614 2 57.2557 36.829 26.5446
57122 2 57.1896 8.18587 32.9383
4134 2 57.1879 17.682 33.0256
4212 2 57.2328 27.2858 32.9119
3978 2 57.1378 40.0254 29.8141
57460 2 57.3759 8.21722 36.2744
4420 2 57.3075 11.3434 36.1822
4446 2 57.2115 14.6006 36.1154
4472 2 57.2038 17.6147 36.112
4498 2 57.2385 20.976 36.1359
4758 2 57.3482 11.264 39.3545
4784 2 57.2982 14.6058 39.3962
58469 2 49.291 6.57275 44.0013
58130 2 47.6356 8.22089 42.5666
58132 2 50.8492 8.09271 42.5558
58134 2 54.1488 8.10315 42.4829
5425 2 42.8111 9.7945 44.0916
5427 2 46.1925 9.72302 44.1712
5092 2 50.8783 11.2989 42.4806
5428 2 47.6746 11.2839 45.7181
5094 2 54.0864 11.3517 42.5268
5477 2 42.8565 16.0875 44.1795
5116 2 47.7484 14.5531 42.4855
5456 2 50.8368 14.4776 45.666
5485 2 55.6576 16.1019 44.1081
5166 2 44.4838 20.8897 42.4466
5142 2 47.6364 17.7957 42.4659
5480 2 47.5699 17.6217 45.7513
5482 2 50.9162 17.7736 45.6623
5506 2 47.7353 20.9632 45.7148
5509 2 52.4877 19.2983 44.2135
5510 2 53.9579 20.7626 45.6406
5529 2 42.8503 22.5108 44.0752
5533 2 49.1322 22.3437 44.1092
5198 2 54.1044 23.9976 42.3997
5536 2 54.0647 24.0293 45.7174
5555 2 42.8221 25.6341 44.1027
5557 2 46.1178 25.7968 43.9897
5218 2 44.4586 27.2102 42.5063
5220 2 47.6524 27.1804 42.5043
5558 2 47.5482 27.1792 45.6711
5560 2 50.8956 27.3096 45.6953
5589 2 55.5336 28.8196 44.1202
5562 2 54.1092 27.3252 45.6874
5270 2 44.4642 33.6516 42.3834
5582 2 44.4956 30.5157 45.7128
5246 2 47.6844 30.615 42.5337
5611 2 49.332 32.0713 44.006
5274 2 50.8748 33.6771 42.5643
5276 2 54.008 33.7022 42.4786
5637 2 49.2509 35.2508 44.0063
5298 2 47.7593 36.8297 42.5921
5639 2 52.4844 35.1757 44.1096
5641 2 55.5372 35.2379 44.0899
5640 2 54.0606 36.7462 45.6371
5685 2 42.8138 41.5484 44.0755
5687 2 46.1951 41.5506 44.2118
5663 2 49.2309 38.4089 44.2252
5689 2 49.263 41.5566 44.2216
5662 2 47.7505 40.0049 45.6975
5664 2 50.82 39.9719 45.6805
5665 2 52.4824 38.41 44.2565
5693 2 55.5341 41.6677 44.1488
58803 2 42.9205 6.53773 47.2517
58806 2 47.6815 8.24942 48.9083
58808 2 50.9255 8.0964 48.8812
58809 2 52.4733 6.64668 47.3785
58811 2 55.6687 6.55785 47.3091
58810 2 54.1036 8.02428 48.873
5791 2 46.0978 12.8353 47.2744
5764 2 44.6087 11.3543 48.8566
5767 2 49.2501 9.69358 47.3196
5797 2 55.7681 12.9233 47.4023
5817 2 46.1287 16.2411 47.3676
5796 2 54.0963 14.5173 48.9432
5841 2 42.8616 19.2741 47.4307
5816 2 44.5603 17.7367 48.8376
5818 2 47.6701 17.7012 48.9716
5822 2 54.0363 17.5933 48.9091
5871 2 49.1392 22.4005 47.2438
5895 2 46.0914 25.6812 47.2279
5925 2 52.4737 28.7345 47.1104
5927 2 55.6559 28.7508 47.2836
5945 2 42.8944 32.0935 47.3342
5947 2 46.0612 32.064 47.2584
5946 2 44.5682 33.4874 48.7986
5951 2 52.5121 32.1081 47.2511
5972 2 44.5386 36.8526 49.0041
5975 2 49.3482 35.2383 47.3656
5976 2 50.891 36.8179 48.9328
5979 2 55.591 35.3118 47.2739
5999 2 46.0852 38.4338 47.3075
5998 2 44.5899 39.89 48.9397
6027 2 49.2194 41.4847 47.2401
6004 2 54.0082 39.9271 48.9194
59141 2 42.9806 6.56475 50.4478
59147 2 52.5397 6.70102 50.4261
59485 2 52.4854 6.60619 53.6722
59148 2 53.9975 8.07581 52.1055
6439 2 42.9471 9.80251 53.5735
6103 2 46.0931 9.77321 50.3956
6441 2 46.0321 9.82966 53.6999
6102 2 44.5887 11.2003 52.0901
6131 2 49.2596 12.874 50.4952
6443 2 49.3546 9.77338 53.6337
6108 2 54.0645 11.3687 52.0557
6128 2 44.5659 14.6073 52.0693
6493 2 46.0383 16.1431 53.5726
6157 2 49.1625 16.2558 50.5062
6159 2 52.5011 16.1208 50.3694
6161 2 55.6204 16.0787 50.4014
6517 2 42.8795 19.2741 53.6641
6181 2 46.0607 19.1162 50.4703
6154 2 44.5322 17.7476 52.1168
6183 2 49.2017 19.1633 50.4794
6156 2 47.6998 17.7413 52.0269
6158 2 50.8226 17.6211 51.9787
6521 2 49.1724 19.2646 53.6294
6525 2 55.7357 19.2164 53.7911
6205 2 42.8459 22.4848 50.3954
6207 2 46.0921 22.5319 50.4691
6545 2 46.0972 22.4913 53.6862
6209 2 49.1787 22.4915 50.5217
6208 2 47.6109 23.9371 52.043
6549 2 52.4439 22.4794 53.6867
6259 2 45.9445 28.8795 50.5283
6232 2 44.5928 27.3563 52.0491
6597 2 45.9567 28.913 53.6034
6573 2 49.1648 25.6232 53.574
6263 2 52.4831 28.8949 50.5111
6265 2 55.6457 28.793 50.4582
6258 2 44.5538 30.4127 52.0905
6623 2 45.8772 32.0479 53.6208
6284 2 44.555 33.6894 52.133
6287 2 49.2618 31.9919 50.392
6625 2 49.2643 32.0168 53.6725
6264 2 54.1117 30.2679 51.9223
6311 2 45.9674 35.1179 50.4058
6649 2 46.0215 35.1403 53.6311
6314 2 50.8321 36.9111 51.9463
6315 2 52.3716 35.2455 50.4959
6317 2 55.5995 35.2227 50.5369
6290 2 54.028 33.7987 51.9497
6335 2 42.9284 38.2983 50.4135
6699 2 42.9062 41.471 53.6879
6337 2 46.0046 38.3918 50.4118
6701 2 46.0394 41.482 53.7117
6339 2 49.3497 38.2949 50.4388
6677 2 49.3205 38.3197 53.591
6703 2 49.3007 41.6667 53.6552
6341 2 52.4154 38.3776 50.4001
59821 2 49.3597 6.62623 56.8694
59825 2 55.6087 6.62828 56.8742
6440 2 44.4815 11.2333 55.1272
6781 2 49.3081 9.73694 56.9433
6783 2 52.4887 9.63622 56.8439
6811 2 55.6501 12.9132 56.7906
6466 2 44.5566 14.5974 55.2214
6470 2 50.8848 14.5121 55.3084
6809 2 52.4355 13.093 56.795
6472 2 54.0769 14.376 55.3572
6857 2 46.0918 19.3371 56.7624
6520 2 47.6177 20.8154 55.2499
6498 2 54.0363 17.8206 55.2363
6544 2 44.5924 24.1034 55.2394
6550 2 53.9862 23.9772 55.2322
6933 2 42.8762 28.8393 56.8282
6909 2 45.9806 25.6139 56.7707
6911 2 49.3294 25.594 56.8242
6937 2 49.1791 28.8723 56.8222
6939 2 52.5773 28.8606 56.7564
6576 2 54.0245 27.3402 55.3371
6596 2 44.544 30.4697 55.1834
6961 2 46.0701 32.0101 56.7845
6622 2 44.59 33.5973 55.2011
6602 2 54.027 30.403 55.2778
6989 2 49.3239 35.224 56.7882
6654 2 53.9515 36.8827 55.2138
7037 2 43.0161 41.5691 56.8235
6674 2 44.4417 40.0735 55.1841
7017 2 52.4695 38.3209 56.8283
7043 2 52.496 41.7689 56.8527
5096 2 57.3419 11.2306 42.4595
5512 2 57.4294 20.8774 45.7875
5200 2 57.1584 24.0377 42.4284
5772 2 57.3627 11.2783 48.9285
5902 2 57.1766 27.3565 48.8736
59150 2 57.4037 8.17458 51.9511
6448 2 57.2889 11.3648 55.2754
6500 2 57.2604 17.6628 55.253
6526 2 57.1738 20.861 55.2483
6578 2 57.2837 27.2521 55.2489
6604 2 57.3583 30.4145 55.1585
6682 2 57.2997 40.0152 55.186
1634 2 50.802 43.1444 7.44936
1682 2 44.5096 49.5725 7.45201
1658 2 47.7624 46.3011 7.51499
1684 2 47.674 49.5611 7.48422
19309 2 42.8762 54.2703 8.93599
18950 2 50.8719 52.727 7.54196
19335 2 42.8936 57.5122 8.92972
2333 2 46.1083 44.7069 12.1874
1997 2 49.3201 44.6809 9.06906
1970 2 47.7043 43.2027 10.6365
2335 2 49.2172 44.5934 12.2433
1972 2 50.7483 43.2538 10.6986
2337 2 52.4303 44.7284 12.2128
2357 2 43.0508 47.9036 12.1721
1994 2 44.4949 46.3108 10.7399
2361 2 49.1837 47.9586 12.1699
2022 2 47.6621 49.6267 10.7281
2025 2 52.4266 47.8828 9.10597
19647 2 43.0066 54.2435 12.3631
19285 2 46.1041 50.9633 8.98602
19311 2 46.0762 54.3473 9.10514
19623 2 46.1161 51.1104 12.2885
19625 2 49.2728 51.1978 12.2209
19288 2 50.8488 52.7117 10.6797
19315 2 52.3963 54.2851 9.14659
19629 2 55.5655 51.0537 12.3385
19655 2 55.5564 54.3846 12.2949
19673 2 42.9511 57.3961 12.3613
19337 2 46.076 57.5355 9.17415
19339 2 49.2101 57.5525 9.0907
19677 2 49.2079 57.6183 12.289
19316 2 54.0857 55.8167 10.7209
19681 2 55.5456 57.3921 12.2267
2669 2 42.8008 44.6559 15.461
2671 2 46.2799 44.6941 15.5062
2308 2 47.6371 43.2949 13.7976
2646 2 47.526 43.0803 17.0752
2648 2 51.0228 43.1366 17.0278
2677 2 55.5446 44.8081 15.3822
2695 2 42.9668 47.9129 15.4731
2697 2 46.1639 47.9104 15.4409
2699 2 49.1846 47.9036 15.4416
2672 2 47.684 46.4669 16.8778
2338 2 54.0352 46.2071 13.817
2364 2 54.0457 49.6413 13.7635
19622 2 44.5397 52.6951 13.7268
19624 2 47.7017 52.5572 13.7144
19626 2 50.8403 52.6739 13.8051
19964 2 50.8403 52.748 17.1035
19966 2 54.0025 52.7295 17.0903
19648 2 44.4459 55.9351 13.7967
20013 2 46.0888 57.4885 15.4252
20015 2 49.3392 57.626 15.5827
19990 2 50.7058 55.9426 17.0372
19654 2 54.0907 55.9138 13.8012
19992 2 54.0472 55.889 17.0453
3013 2 52.3806 44.7039 18.547
3008 2 44.5434 46.3138 20.2031
3034 2 44.5452 49.5338 20.1579
3037 2 49.1528 47.8264 18.5622
3039 2 52.4416 47.886 18.5891
20299 2 46.0106 51.0964 18.7039
20298 2 44.5525 52.6736 20.193
20327 2 49.3954 54.3006 18.5717
20302 2 50.8906 52.847 20.1485
20303 2 52.3263 51.3024 18.5598
20331 2 55.4653 54.4084 18.5299
20351 2 46.0932 57.5051 18.5531
20324 2 44.5841 56.0816 20.1886
20353 2 49.3251 57.554 18.552
20330 2 54.0193 55.9066 20.2439
3347 2 45.9551 44.8838 21.759
3349 2 49.3987 44.7973 21.8699
3324 2 50.7824 43.2425 23.2366
3351 2 52.4512 44.7147 21.8553
3326 2 54.0184 43.2828 23.2807
3346 2 44.521 46.3397 23.3455
3372 2 44.4922 49.5802 23.3741
3713 2 49.3337 47.8687 24.9493
3350 2 50.8752 46.3796 23.345
3377 2 52.4014 47.9671 21.8324
3379 2 55.7489 47.9469 21.6865
20999 2 42.8637 54.4255 24.9908
20977 2 49.1899 51.2245 24.9585
20643 2 55.6099 51.1586 21.7918
20979 2 52.543 51.2177 24.9556
20642 2 54.0426 52.6499 23.3678
20689 2 46.1199 57.4817 21.8311
21001 2 46.2269 54.5138 25.0075
20664 2 47.5689 55.9629 23.3275
20666 2 50.9542 55.9879 23.3447
20693 2 52.427 57.509 21.8001
20695 2 55.5052 57.5117 21.6118
21033 2 55.7152 57.5253 25.0419
4021 2 42.8663 44.7584 28.2532
4023 2 46.0304 44.806 28.2275
4025 2 49.2921 44.7528 28.142
3662 2 50.777 43.2294 26.6806
3664 2 54.0281 43.1982 26.5598
3710 2 44.537 49.6011 26.6525
4053 2 52.3812 48.0161 28.1203
21337 2 42.849 54.3577 28.2246
21313 2 45.972 51.1289 28.1372
21315 2 49.2381 51.1677 28.1537
20980 2 53.9966 52.6973 26.5454
21363 2 42.9036 57.4686 28.116
21365 2 46.1741 57.4386 28.2399
21341 2 49.1893 54.4729 28.2249
21002 2 47.7205 55.9564 26.615
21371 2 55.6512 57.6097 28.2057
4361 2 45.9967 44.8169 31.4271
4334 2 44.5024 43.1876 32.97
4338 2 50.8472 43.1503 32.955
4002 2 54.1199 43.1801 29.8497
4367 2 55.6693 44.7605 31.2776
4022 2 44.4939 46.2417 29.7307
4048 2 44.4812 49.7427 29.7901
4386 2 44.4224 49.6239 32.9843
4362 2 47.5275 46.3144 32.88
4364 2 50.8379 46.4153 32.9634
4388 2 47.58 49.5878 33.0139
4392 2 53.9469 49.6226 32.9117
21649 2 42.9124 51.1121 31.3056
21677 2 46.1528 54.412 31.3946
21652 2 47.5314 52.7997 32.965
21655 2 52.495 51.1433 31.3596
21701 2 42.8623 57.561 31.4987
21340 2 47.6213 55.9818 29.7868
21342 2 50.8181 55.9289 29.713
21678 2 47.5697 55.911 32.9164
21709 2 55.5705 57.5888 31.3868
21682 2 54.0826 56.0179 32.905
4697 2 42.8589 44.7117 34.5603
5039 2 49.1987 44.8928 37.7396
5041 2 52.4303 44.8995 37.8203
5043 2 55.6604 44.7881 37.7942
4723 2 42.9197 48.1185 34.4061
5061 2 42.8204 47.9798 37.7964
4700 2 47.6748 46.3755 36.2069
4728 2 50.7936 49.5475 36.1787
5069 2 55.6275 47.9849 37.8205
21989 2 46.0976 51.1891 34.4748
21990 2 47.6328 52.7555 36.1593
22355 2 49.1954 54.3597 37.6793
22357 2 52.4303 54.3638 37.8181
22359 2 55.5748 54.3868 37.8002
22013 2 42.9008 54.4487 34.5804
22014 2 44.4187 55.8454 36.083
22016 2 47.747 55.9721 36.2842
22381 2 49.2784 57.3994 37.6619
22018 2 50.7932 55.9084 36.2563
5373 2 42.865 44.6754 40.8996
5010 2 44.4584 43.2559 39.4129
5375 2 46.007 44.7131 40.8746
5399 2 42.894 48.068 40.9063
5040 2 50.7951 46.2971 39.2888
5064 2 47.6832 49.5965 39.3453
5042 2 54.1334 46.288 39.2423
22326 2 44.5404 52.8097 39.3084
22691 2 46.0705 54.2953 40.8888
22667 2 49.2395 51.1833 40.9963
22330 2 50.7386 52.893 39.2952
22693 2 49.3347 54.2471 40.9854
22671 2 55.668 51.1211 40.878
22332 2 54.083 52.7927 39.2901
22719 2 49.2926 57.6044 40.9356
22358 2 54.0308 55.9164 39.2489
1638 2 57.3163 43.2013 7.29819
1690 2 57.1899 49.4002 7.43486
18954 2 57.2661 52.844 7.38916
1976 2 57.2252 43.0003 10.8213
2002 2 57.1753 46.3904 10.6266
2704 2 57.2451 49.4981 16.9605
2990 2 57.2016 43.1665 20.1371
3016 2 57.1661 46.3783 20.2145
3042 2 57.1057 49.582 20.3048
3328 2 57.2614 43.2288 23.4011
3666 2 57.2169 43.1281 26.6497
3692 2 57.3131 46.432 26.5388
3718 2 57.4067 49.5254 26.5422
20982 2 57.3295 52.73 26.4712
4342 2 57.1963 43.1495 32.9116
4030 2 57.1917 46.3752 29.7844
4056 2 57.2867 49.49 29.6842
4394 2 57.2619 49.5716 32.9564
21320 2 57.1756 52.7582 29.7805
21658 2 57.2296 52.789 32.963
22022 2 57.2738 56.0157 36.1714
5070 2 57.2044 49.5335 39.3794
5713 2 46.1031 44.7651 44.2518
5688 2 47.7204 43.0954 45.6974
5717 2 52.5728 44.7223 44.1442
5354 2 54.0073 43.152 42.6043
5692 2 54.1126 43.1575 45.7216
5739 2 46.0475 48.0347 44.1071
5738 2 44.5599 49.5263 45.782
5402 2 47.6528 49.5689 42.5152
5714 2 47.6023 46.4497 45.6952
5742 2 50.9133 49.5303 45.7032
5380 2 53.9735 46.375 42.6662
5743 2 52.4903 47.9873 44.1929
5744 2 54.0229 49.5422 45.7238
22666 2 47.7273 52.803 42.3911
22668 2 50.7907 52.7287 42.4527
23008 2 54.0525 52.67 45.7391
23055 2 46.0298 57.5059 44.0699
23057 2 49.2407 57.5072 44.1307
23030 2 47.566 56.0431 45.6378
23059 2 52.3751 57.6708 44.0247
6053 2 49.1917 44.855 47.2319
6057 2 55.7143 44.6526 47.3715
6030 2 54.1348 43.303 48.8657
6075 2 42.8671 47.9736 47.2504
6077 2 46.1355 48.0051 47.2781
6054 2 50.7442 46.326 48.882
6078 2 47.5848 49.5518 48.8351
6082 2 54.0355 49.6489 48.7691
23341 2 46.0548 51.0697 47.2735
23344 2 50.8582 52.7106 48.7824
23345 2 52.4957 51.1552 47.3109
23347 2 55.4778 51.1737 47.2764
23346 2 54.0678 52.6733 48.7974
23391 2 42.8968 57.5059 47.2414
23367 2 46.1914 54.476 47.2256
23393 2 46.1201 57.5078 47.3408
23368 2 47.5431 55.9274 48.8458
23397 2 52.3674 57.6577 47.3355
23399 2 55.7143 57.4745 47.156
6727 2 46.0269 44.9384 53.6628
6391 2 49.267 44.8038 50.4534
6731 2 52.4281 44.7996 53.74
6413 2 42.9165 47.9043 50.4608
6388 2 44.5255 46.401 52.0374
6417 2 49.2834 47.9622 50.3731
6755 2 49.2808 47.8765 53.7404
6420 2 54.0059 49.5292 52.0195
23703 2 42.8886 54.3539 50.4248
23679 2 46.0949 51.0869 50.3717
24017 2 46.1314 51.1933 53.7232
24019 2 49.288 51.24 53.6487
23682 2 50.8229 52.7191 52.1041
24049 2 55.564 54.3282 53.6512
23705 2 46.0761 54.4981 50.4551
23704 2 44.5042 55.9069 51.9847
24069 2 46.0641 57.5742 53.5546
23737 2 55.5938 57.4768 50.5102
24073 2 52.4016 57.4558 53.6684
23710 2 54.0356 55.9599 52.04
7065 2 46.0425 44.8994 56.7937
7067 2 49.3612 44.8681 56.8271
6706 2 53.9014 43.2085 55.2151
6726 2 44.5665 46.2881 55.2462
6728 2 47.6746 46.3068 55.2916
6730 2 50.8678 46.3337 55.2142
24353 2 42.8927 51.1704 56.9629
24018 2 47.6962 52.6552 55.1941
24359 2 52.4662 51.0222 56.9631
24361 2 55.6598 51.1008 56.9626
24046 2 50.8774 55.9633 55.2394
24409 2 49.3172 57.5422 56.7401
24411 2 52.3704 57.5168 56.7173
24413 2 55.6626 57.4746 56.826
5408 2 57.2403 49.4922 42.4922
23036 2 57.1585 55.9913 45.7352
6032 2 57.3234 43.1572 48.8176
6058 2 57.2484 46.2467 48.923
6370 2 57.3638 43.2524 52.0756
6708 2 57.4534 43.2711 55.324
