ITEM: TIMESTEP
0
ITEM: NUMBER OF ATOMS
2826
ITEM: BOX BOUNDS pp pp pp
6.7011339712180984e-01 1.6626028660283973e+02
6.7011339712180984e-01 1.6626028660283973e+02
6.7011339712180984e-01 1.6626028660283973e+02
ITEM: ATOMS id type x y z
265330 3 15.8616 8.17936 7.51405
54396 3 22.3054 8.12006 7.51349
54398 3 25.4236 8.16719 7.50285
54402 3 31.8321 8.11768 7.45637
212288 3 12.6745 11.3059 7.52346
1360 3 28.5024 11.3298 7.40879
1368 3 41.4042 11.3953 7.4499
212314 3 12.6952 14.6138 7.50955
1380 3 19.1168 14.4951 7.47954
1384 3 25.4153 14.5447 7.44723
212338 3 9.60177 17.7132 7.40144
212366 3 12.6916 20.8679 7.46312
212342 3 15.8549 17.6854 7.40872
1438 3 28.6236 20.8921 7.43578
1414 3 31.7712 17.6712 7.50405
1418 3 38.1194 17.6412 7.43927
1444 3 38.1547 20.9539 7.43554
212390 3 9.50089 24.0572 7.32779
1458 3 19.0318 24.1092 7.46153
1472 3 41.2088 24.0947 7.38108
212442 3 9.52658 30.37 7.44744
1510 3 19.0998 30.3735 7.43555
1536 3 19.0236 33.5537 7.44699
1538 3 22.2603 33.5028 7.37898
1540 3 25.4369 33.6102 7.36199
1516 3 28.5326 30.4602 7.47737
1518 3 31.7463 30.3666 7.48426
1544 3 31.7696 33.5967 7.45665
1520 3 34.9151 30.4126 7.46693
1550 3 41.314 33.6823 7.52996
212498 3 15.9151 36.727 7.47819
1572 3 34.8769 36.798 7.47411
212522 3 12.6062 39.9452 7.49845
1588 3 19.0377 39.845 7.38452
1592 3 25.374 39.9197 7.36468
1594 3 28.549 39.972 7.47821
1596 3 31.7948 39.9162 7.49673
1598 3 34.9605 39.8992 7.46261
1600 3 38.1292 39.9171 7.3956
266001 3 7.98764 6.55888 12.2467
265665 3 11.0775 6.55849 9.09094
265667 3 14.2047 6.62559 9.11319
265668 3 15.8689 8.21418 10.7284
55071 3 20.6227 6.45103 12.3335
54732 3 19.0223 8.0906 10.6505
54739 3 30.1713 6.48917 9.02816
55075 3 26.9066 6.57104 12.1623
54740 3 31.8066 8.12715 10.6704
212989 3 11.0915 12.9411 12.0614
1717 3 17.4479 12.8266 9.03055
1693 3 20.6158 9.80135 9.0762
2057 3 20.5819 12.9182 12.2235
1721 3 23.7554 12.8777 9.09439
2033 3 23.8266 9.6972 12.1398
1699 3 30.1684 9.76856 9.02997
1723 3 26.9894 12.9312 9.13229
1725 3 30.147 13.0278 9.08155
2037 3 30.1503 9.78346 12.2159
1727 3 33.4471 12.9211 9.0466
1700 3 31.8331 11.3983 10.6836
1703 3 36.5107 9.83167 9.04288
2067 3 36.506 12.9677 12.2931
1705 3 39.7355 9.79808 9.08963
1731 3 39.7285 13.0522 9.03483
212675 3 7.87085 16.1038 9.0785
1743 3 17.4075 16.1185 9.04928
212654 3 15.795 14.4648 10.7483
1745 3 20.7344 16.1778 9.09782
2089 3 30.1874 16.0213 12.2578
1755 3 36.5626 16.068 9.11449
2095 3 39.7622 16.1557 12.2483
212676 3 9.54513 17.7479 10.626
212678 3 12.6692 17.6615 10.6381
212702 3 9.56347 20.9259 10.6236
2107 3 17.3456 19.3193 12.2003
212706 3 15.7604 20.9378 10.5738
2109 3 20.6933 19.3309 12.1621
1775 3 26.9116 19.2873 8.98307
2113 3 26.9423 19.318 12.1925
1750 3 28.6212 17.7371 10.5958
1779 3 33.4416 19.2747 9.04493
1752 3 31.7742 17.662 10.6364
2117 3 33.3681 19.2888 12.2
2119 3 36.5743 19.2689 12.1294
1783 3 39.6851 19.2579 9.10817
1758 3 41.3879 17.6597 10.636
1784 3 41.2855 20.9416 10.6857
212730 3 12.7091 23.977 10.6132
212732 3 15.844 24.0611 10.4997
1797 3 20.7332 22.4315 9.09257
1796 3 19.0159 24.0568 10.6225
1800 3 25.344 24.0553 10.6589
1801 3 26.8459 22.4485 8.99458
2141 3 30.1627 22.3972 12.2639
1802 3 28.5416 24.0316 10.6879
1805 3 33.2438 22.4271 9.01693
2145 3 36.5705 22.547 12.2826
1806 3 34.8878 24.0499 10.6026
212755 3 11.0866 25.6185 8.94595
213093 3 11.043 25.5729 12.2174
212754 3 9.47031 27.3178 10.5979
212756 3 12.7193 27.2677 10.505
2185 3 17.4091 28.685 12.1416
1851 3 23.7774 28.8452 8.93886
1824 3 22.1847 27.1579 10.5708
2189 3 23.8134 28.8542 12.1158
1829 3 30.1724 25.6494 9.01785
1853 3 26.8932 28.7669 8.98345
1828 3 28.4914 27.1775 10.7196
2193 3 30.1241 28.8271 12.23
2169 3 33.2692 25.6121 12.3004
1833 3 36.5515 25.6856 8.94929
1832 3 34.8535 27.2386 10.615
1835 3 39.6564 25.7209 9.05466
1861 3 39.7228 28.8467 9.03194
2173 3 39.5652 25.6491 12.2632
2199 3 39.6534 28.8227 12.2716
213143 3 7.84444 31.9458 12.1424
212807 3 11.1499 32.0377 8.98386
212806 3 9.5391 33.6524 10.5961
1873 3 17.3989 32.001 9.04129
212784 3 15.7933 30.3446 10.5038
1874 3 19.0332 33.5685 10.7024
1876 3 22.2102 33.5598 10.6356
1878 3 25.4289 33.6058 10.528
2217 3 26.9617 31.9166 12.247
2221 3 33.3171 32.0843 12.2219
1885 3 36.4649 32.1436 9.03009
1858 3 34.8842 30.3469 10.6759
1860 3 38.0332 30.4505 10.6987
1888 3 41.2746 33.6504 10.6505
213169 3 7.85923 35.2819 12.2187
212832 3 9.61024 36.7931 10.6339
212835 3 14.2136 35.146 9.02812
1901 3 20.6642 35.2333 8.97977
1900 3 19.004 36.7615 10.6226
1907 3 30.1221 35.1744 9.07015
2243 3 26.9667 35.191 12.2568
2245 3 30.1111 35.1755 12.1687
2249 3 36.4486 35.2516 12.1496
1914 3 41.3019 36.825 10.664
212858 3 9.53808 40.0139 10.6031
212861 3 14.2895 38.3532 9.08225
2263 3 17.3909 38.4284 12.2026
213225 3 14.1789 41.4611 12.1902
1953 3 20.621 41.5812 8.90324
2291 3 20.5515 41.5085 12.1958
1929 3 23.7833 38.2467 8.94159
1955 3 23.8265 41.6138 8.95848
1928 3 22.2231 39.8722 10.6014
1931 3 26.9852 38.282 8.98569
1933 3 30.1653 38.2658 9.09533
2269 3 26.9762 38.3407 12.2727
1932 3 28.5971 40.0036 10.7034
1961 3 33.4295 41.6811 9.04586
2299 3 33.3948 41.6342 12.2955
1936 3 34.9526 39.9372 10.6573
1965 3 39.7116 41.6099 9.02741
2277 3 39.577 38.4469 12.2048
1940 3 41.3205 40.0193 10.6981
266342 3 12.6636 8.1078 16.9976
266006 3 15.8734 8.16038 13.8089
266344 3 15.9366 8.17567 16.9809
55072 3 22.2163 8.12354 13.8656
55410 3 22.1617 8.13089 17.0394
55412 3 25.3871 8.06023 17.0827
55415 3 30.1566 6.57276 15.5896
55076 3 28.5464 8.15034 13.8111
55080 3 35.095 8.0962 13.836
55421 3 39.6907 6.60274 15.4929
55084 3 41.2873 8.20539 13.8976
213299 3 7.93604 9.74126 15.4399
213301 3 11.1047 9.71444 15.3949
212962 3 9.49728 11.3885 13.756
212964 3 12.6953 11.415 13.8054
212966 3 15.8439 11.3937 13.7723
213304 3 15.8868 11.3524 16.9858
2368 3 19.0384 11.3349 16.9786
2032 3 22.2036 11.3312 13.875
2034 3 25.3847 11.3989 13.8178
2370 3 22.1627 11.3618 17.0177
2372 3 25.2952 11.4107 17.0842
2373 3 26.9623 9.79268 15.5019
2036 3 28.5221 11.386 13.8375
2401 3 30.1748 13.0245 15.4315
2377 3 33.3297 9.63129 15.4801
2403 3 33.4328 12.9702 15.3379
2042 3 38.1741 11.2759 13.875
2378 3 35.0146 11.3004 17.0279
2044 3 41.3112 11.4043 13.8339
2382 3 41.2906 11.396 17.0373
212988 3 9.48939 14.5282 13.785
213353 3 11.107 16.1652 15.4175
213328 3 12.6891 14.458 16.9316
213355 3 14.2834 16.1283 15.3043
213330 3 15.8937 14.4442 16.9163
2394 3 19.0346 14.5759 16.9205
2058 3 22.2542 14.5267 13.8595
2060 3 25.4442 14.567 13.8321
2427 3 30.1594 16.1057 15.4879
2429 3 33.4168 16.1523 15.4471
2406 3 38.2209 14.5639 17.0085
2070 3 41.3221 14.5116 13.8581
213014 3 9.4902 17.7158 13.7661
213381 3 14.2171 19.3274 15.2851
213356 3 15.8854 17.731 16.9373
2082 3 19.0235 17.6914 13.8051
2112 3 25.2927 20.8859 13.771
2422 3 22.1822 17.6776 17.0799
2424 3 25.4225 17.7169 17.0739
2448 3 22.1982 20.8903 16.9526
2088 3 28.5086 17.688 13.8522
2453 3 30.1739 19.3081 15.4328
2452 3 28.5539 20.9251 17.001
2094 3 38.0835 17.6855 13.94
2118 3 34.9046 20.8577 13.8665
2120 3 38.1366 20.8337 13.9078
2434 3 41.2258 17.6954 16.999
2460 3 41.2418 20.9421 17.0054
213405 3 11.1053 22.4176 15.3435
2471 3 17.3854 22.3988 15.365
213070 3 15.844 24.0363 13.7717
2472 3 18.9323 24.0632 16.9774
2477 3 26.9485 22.5293 15.3756
2481 3 33.2871 22.5346 15.4382
2483 3 36.5192 22.5372 15.4597
2482 3 34.9256 24.1569 17.121
2148 3 41.3092 24.0826 13.8407
213431 3 11.0896 25.5823 15.4136
213094 3 12.6753 27.2596 13.8436
213430 3 9.51462 27.3379 17.0062
213433 3 14.2297 25.6176 15.423
213434 3 15.8359 27.2268 17.0722
2499 3 20.5888 25.5918 15.3511
2498 3 18.9563 27.25 16.972
2162 3 22.2229 27.2347 13.87
2164 3 25.4307 27.2742 13.8194
2502 3 25.3437 27.2082 17.0817
2503 3 27.0147 25.6568 15.4367
2505 3 30.0954 25.6927 15.4101
2533 3 33.3496 28.785 15.4708
2506 3 31.7108 27.2485 17.0773
2170 3 34.9548 27.2591 13.8062
2535 3 36.5575 28.7944 15.5907
2511 3 39.5877 25.6911 15.4379
2512 3 41.3271 27.2416 17.05
213118 3 9.44742 30.3562 13.8821
213144 3 9.50195 33.5837 13.8035
213146 3 12.7386 33.6122 13.7817
213458 3 12.646 30.3661 17.0256
213148 3 15.8556 33.6122 13.7791
213486 3 15.8389 33.5432 16.9711
2186 3 19.0328 30.3648 13.7828
2524 3 19.0138 30.3654 17.0633
2550 3 19.0164 33.5658 16.9494
2188 3 22.2408 30.3964 13.8705
2214 3 22.1879 33.594 13.85
2216 3 25.3482 33.5385 13.9152
2555 3 27.015 31.8526 15.558
2557 3 30.1023 31.9747 15.4514
2194 3 31.7157 30.41 13.8262
2532 3 31.743 30.4169 17.0999
2558 3 31.7725 33.5781 17.0636
2561 3 36.3979 32.0737 15.431
2224 3 38.1196 33.646 13.8605
2200 3 41.2409 30.4173 13.9274
2226 3 41.2003 33.6874 13.8962
2538 3 41.2373 30.4349 17.0283
213509 3 11.0973 35.1605 15.5006
213172 3 12.7216 36.8191 13.7931
2576 3 19.0843 36.7584 17.0176
2240 3 22.1762 36.7666 13.7729
2578 3 22.2994 36.7653 17.0156
2581 3 27.0425 35.2375 15.5175
2246 3 31.775 36.8119 13.7925
2248 3 34.881 36.8253 13.9073
2250 3 38.0874 36.8145 13.9268
2590 3 41.3124 36.8086 17.036
213533 3 7.9648 38.4097 15.2594
213536 3 12.6287 39.8754 16.9233
2601 3 17.4563 38.2921 15.3607
213538 3 15.9055 39.9943 16.9985
2629 3 20.6299 41.5071 15.4735
2605 3 23.9223 38.3798 15.4548
2266 3 22.2998 39.9415 13.7744
2631 3 23.8835 41.5487 15.4865
2609 3 30.1615 38.416 15.4743
2274 3 34.9123 39.8877 13.8972
2639 3 36.4861 41.6167 15.4264
2614 3 38.0921 40.0076 17.0019
2278 3 41.2091 40.0109 13.8989
266677 3 7.9558 6.51299 18.5191
266680 3 12.6538 8.23453 20.2198
266681 3 14.2971 6.51166 18.5332
266682 3 15.82 8.25896 20.2028
55746 3 19.1261 8.17541 20.2085
55750 3 25.4169 8.19078 20.2564
55757 3 36.5831 6.63919 18.7146
213637 3 8.00355 9.7173 18.5668
213638 3 9.58456 11.3196 20.2205
213640 3 12.733 11.2953 20.2262
2733 3 20.5542 13.0034 18.6347
2708 3 22.1918 11.354 20.2209
2737 3 26.9973 12.9685 18.6547
2715 3 33.4283 9.60503 18.6475
2714 3 31.8068 11.3698 20.1845
2743 3 36.6272 12.9178 18.6853
2719 3 39.6952 9.68855 18.6631
213664 3 9.55651 14.5131 20.2496
213666 3 12.6584 14.5526 20.2309
2757 3 17.4672 16.0975 18.6134
2734 3 22.1962 14.5427 20.2007
2736 3 25.3387 14.5193 20.1826
2765 3 30.1225 16.1812 18.616
2740 3 31.8121 14.5275 20.1617
2742 3 34.9379 14.5078 20.2437
2746 3 41.3 14.5436 20.1182
213717 3 11.1439 19.2444 18.4695
213690 3 9.53843 17.6205 20.1871
213718 3 12.7422 20.8894 20.2007
2783 3 17.483 19.3549 18.5519
213694 3 15.8481 17.7469 20.2946
2758 3 19.0777 17.7353 20.2447
2791 3 30.2502 19.3727 18.6503
2770 3 38.0664 17.6638 20.2811
2797 3 39.5956 19.3571 18.6171
2772 3 41.2768 17.6287 20.2451
2798 3 41.2705 20.9303 20.2442
213742 3 9.59257 23.9784 20.085
213745 3 14.353 22.4656 18.4964
2811 3 20.537 22.487 18.6374
2813 3 23.8237 22.5311 18.6127
2815 3 26.9899 22.5854 18.6162
2819 3 33.2623 22.438 18.6749
2821 3 36.561 22.3764 18.6806
213767 3 7.8343 25.6458 18.5333
213768 3 9.51316 27.2395 20.1491
213770 3 12.7326 27.2511 20.0887
2836 3 18.9885 27.2471 20.1234
2843 3 30.0709 25.614 18.6411
2849 3 39.6752 25.5721 18.7411
2875 3 39.5737 28.8026 18.6506
2850 3 41.3889 27.2055 20.2481
213819 3 7.97506 31.9899 18.6495
213822 3 12.6538 33.6141 20.1549
213798 3 15.8457 30.3984 20.1561
2888 3 19.0351 33.6001 20.2272
2864 3 22.173 30.3358 20.1775
2866 3 25.4441 30.3173 20.1228
2870 3 31.7646 30.4452 20.1872
2899 3 36.4684 32.0125 18.6387
2900 3 38.1455 33.6184 20.2448
2876 3 41.2337 30.5074 20.2632
213845 3 7.98255 35.1273 18.5455
213846 3 9.58159 36.7622 20.1922
213848 3 12.614 36.7953 20.1583
213849 3 14.2694 35.1828 18.5359
213850 3 15.8895 36.7552 20.2791
2915 3 20.7014 35.1425 18.6471
2916 3 22.2794 36.7772 20.3078
2918 3 25.3231 36.7874 20.1992
2921 3 30.1453 35.2133 18.5843
2922 3 31.721 36.8815 20.2048
2925 3 36.4225 35.2539 18.5987
2927 3 39.6286 35.2612 18.6279
213871 3 8.00357 38.4205 18.5575
213899 3 11.0911 41.6349 18.5608
213901 3 14.2837 41.6638 18.6256
2940 3 19.0255 39.9351 20.158
2945 3 26.969 38.3704 18.57
2946 3 28.6377 40.0056 20.1155
2975 3 33.2955 41.5671 18.5583
2950 3 34.9277 39.9074 20.1469
2953 3 39.6413 38.4054 18.6687
2979 3 39.7079 41.5935 18.6183
267016 3 9.53933 8.16928 23.4297
267019 3 14.2588 6.54128 21.8093
56083 3 17.4946 6.52971 21.7616
267357 3 14.3692 6.58742 25.0413
56423 3 20.6442 6.64843 25.0144
56087 3 23.7764 6.52893 21.7361
56090 3 28.4845 8.10866 23.4241
56093 3 33.4275 6.52069 21.7821
56092 3 31.699 8.14634 23.4106
56094 3 35.0227 8.13061 23.4323
56096 3 38.1116 8.1713 23.4008
56097 3 39.6989 6.55763 21.8112
56098 3 41.3319 8.2085 23.4099
214001 3 7.90922 12.8019 21.8526
214341 3 11.085 12.9709 24.9358
3043 3 17.5315 9.89293 21.8066
214317 3 14.2909 9.77004 25.0023
3381 3 17.5728 9.75053 25.0496
3385 3 23.7707 9.76297 24.979
3411 3 23.7108 12.9098 25.0515
3051 3 30.0751 9.74641 21.7688
3077 3 30.1292 12.9321 21.8202
3413 3 26.9988 12.7737 25.0023
3415 3 30.1664 12.8324 25.0462
3054 3 34.9242 11.3678 23.3425
3083 3 39.6287 12.9157 21.7723
3058 3 41.3391 11.327 23.3635
3421 3 39.6462 12.8833 25.0595
214006 3 15.9588 14.5024 23.3781
3435 3 20.6116 16.0316 25.0028
3099 3 23.7876 16.1819 21.7468
3074 3 25.3893 14.4729 23.3818
3101 3 27.0382 16.1373 21.7612
3076 3 28.6037 14.5753 23.4892
3080 3 34.9071 14.534 23.4247
3082 3 38.051 14.6207 23.4071
3084 3 41.3221 14.6011 23.4024
3447 3 39.6815 16.1685 25.0647
214391 3 7.93572 19.202 24.9811
214055 3 11.1294 19.2768 21.7624
214028 3 9.56931 17.5975 23.376
214030 3 12.7589 17.6458 23.3529
214395 3 14.3547 19.2937 24.9052
3096 3 18.9225 17.6334 23.3509
3461 3 20.5272 19.3752 25.0128
3125 3 23.7421 19.3285 21.7444
3098 3 22.1383 17.701 23.365
3100 3 25.4009 17.7383 23.5025
3126 3 25.4725 20.9713 23.3613
3102 3 28.6336 17.766 23.5709
3104 3 31.7406 17.7303 23.4116
3469 3 33.3469 19.3623 25.0942
3130 3 31.7313 20.8628 23.4082
3106 3 35.0382 17.7614 23.4156
3134 3 38.0567 20.8396 23.4755
3135 3 39.6557 19.2697 21.868
214079 3 7.88635 22.4991 21.7483
214419 3 11.1612 22.4832 24.9215
214083 3 14.3848 22.5118 21.7832
3149 3 20.5393 22.382 21.755
3148 3 18.979 24.0312 23.3769
3489 3 23.7799 22.4273 24.9994
3150 3 22.2141 24.0476 23.3721
3155 3 30.1405 22.4823 21.6905
3493 3 30.1951 22.4586 25.0825
3154 3 28.5424 24.094 23.3634
3157 3 33.3547 22.4976 21.8377
3159 3 36.4386 22.4487 21.8144
3160 3 38.0831 24.0948 23.3808
3499 3 39.6654 22.4715 25.0547
214443 3 7.97184 25.6256 24.9367
214469 3 7.91316 28.7735 24.9846
214107 3 11.1145 25.6174 21.7927
214445 3 11.0901 25.6861 24.9826
214109 3 14.3508 25.6103 21.7493
3199 3 17.4294 28.7732 21.7715
3511 3 17.3825 25.6027 24.9423
214473 3 14.1356 28.8236 24.967
3175 3 20.6223 25.6049 21.7004
3539 3 20.6573 28.7575 25.0137
3177 3 23.8864 25.6806 21.7157
3515 3 23.8879 25.6675 24.9611
3207 3 30.1439 28.8278 21.8035
3517 3 26.9344 25.6599 25.0388
3545 3 30.1575 28.7965 24.9955
3183 3 33.3254 25.6549 21.7475
3521 3 33.4262 25.5739 25.0198
3211 3 36.4941 28.8289 21.6598
3186 3 38.0156 27.2005 23.3741
3551 3 39.7369 28.8129 24.9252
214159 3 11.0541 31.9158 21.6686
214132 3 9.46386 30.4445 23.3735
214160 3 12.6031 33.6112 23.3256
214136 3 15.842 30.361 23.3674
214499 3 14.1812 32.0059 24.9885
3563 3 17.5031 32.1062 24.9208
214162 3 15.8016 33.6489 23.3087
3565 3 20.6736 32.0699 24.8918
3202 3 22.322 30.3351 23.3803
3231 3 26.9608 32.0161 21.8092
3571 3 30.2306 32.0069 24.882
3237 3 36.4485 32.0668 21.8179
3210 3 34.8593 30.4193 23.4111
3238 3 38.0471 33.6796 23.4649
3577 3 39.7207 32.1036 25.0265
214184 3 9.48214 36.6777 23.3373
3257 3 26.9949 35.1734 21.7594
3595 3 26.8795 35.1736 24.9639
3261 3 33.3831 35.2126 21.7763
3599 3 33.3012 35.1618 24.9424
3264 3 38.0403 36.7908 23.4427
214209 3 7.95324 38.419 21.8009
214573 3 7.86803 41.5308 25.0363
214237 3 11.0771 41.5077 21.7296
214549 3 11.1425 38.3867 24.9006
214213 3 14.2245 38.4046 21.8133
3303 3 17.478 41.5634 21.7391
214214 3 15.8565 39.98 23.3989
3641 3 17.4797 41.5434 25.0449
3279 3 20.7077 38.4379 21.9237
3619 3 23.7466 38.3541 24.8641
3283 3 26.9103 38.4539 21.8237
3311 3 30.2112 41.6143 21.8555
3621 3 26.9241 38.3491 24.914
3647 3 27.0264 41.5959 24.897
3625 3 33.4082 38.3483 25.0021
3651 3 33.3154 41.5895 24.9741
3315 3 36.5536 41.5641 21.7258
3288 3 35.0237 39.943 23.3819
3291 3 39.7428 38.355 21.7821
3317 3 39.7148 41.4748 21.8149
267693 3 11.1131 6.54692 28.1983
267354 3 9.48847 8.17139 26.5508
267695 3 14.2922 6.68896 28.1872
56763 3 23.9132 6.62827 28.1923
56769 3 33.3827 6.5145 28.151
56430 3 31.6781 8.15508 26.6003
56434 3 38.1194 8.03651 26.612
56436 3 41.3203 8.17044 26.604
214651 3 7.84245 9.74374 28.2739
214316 3 12.7138 11.3918 26.6486
3719 3 17.4779 9.74347 28.1823
214318 3 15.8856 11.4434 26.6077
3721 3 20.7042 9.77145 28.133
3723 3 23.9064 9.82204 28.2097
3751 3 27.0746 12.8237 28.2193
3729 3 33.3162 9.74588 28.1605
3755 3 33.2493 12.9277 28.25
3392 3 34.9687 11.3659 26.6019
3759 3 39.7421 12.9016 28.2647
214707 3 14.3504 16.0336 28.1471
3408 3 19.0522 14.4241 26.6506
3412 3 25.4815 14.5148 26.6659
3779 3 30.1464 16.105 28.2285
3416 3 31.7456 14.5306 26.5648
3418 3 35.0005 14.4989 26.6112
3783 3 36.5565 16.1901 28.2643
214368 3 12.6506 17.6801 26.5496
214392 3 9.48986 20.907 26.531
214370 3 15.9551 17.7062 26.5509
214396 3 15.8504 20.9705 26.5493
3436 3 22.1639 17.7052 26.629
3801 3 23.8327 19.3242 28.1919
3438 3 25.5238 17.7082 26.6264
3803 3 27.12 19.4049 28.3011
3444 3 34.9936 17.7296 26.6329
3811 3 39.5834 19.3211 28.2828
3474 3 41.3177 20.7885 26.6243
214757 3 11.1614 22.4773 28.178
214420 3 12.8412 24.0593 26.559
3486 3 19.0759 23.9903 26.5626
3827 3 23.9193 22.4265 28.187
3488 3 22.1467 24.0591 26.612
3492 3 28.5731 24.028 26.6653
3498 3 38.0745 24.0627 26.6409
3849 3 17.3874 25.5277 28.1981
214811 3 14.1869 28.8515 28.2263
214448 3 15.777 27.1676 26.5565
3853 3 23.982 25.6017 28.1643
3520 3 31.7637 27.1349 26.6523
3526 3 41.2983 27.2858 26.6779
214833 3 7.85508 32.0295 28.1337
214470 3 9.55127 30.4086 26.5426
214835 3 11.1668 32.0726 28.1371
214496 3 9.46439 33.621 26.4271
214474 3 15.8691 30.4177 26.5903
214500 3 15.8491 33.6649 26.586
3538 3 19.0265 30.4002 26.5511
3542 3 25.4027 30.3953 26.4543
3566 3 22.2675 33.6033 26.5351
3570 3 28.5506 33.5958 26.6655
3911 3 33.3601 31.979 28.115
3550 3 38.0716 30.3843 26.5762
3574 3 34.997 33.5897 26.5324
3915 3 39.5913 32.0172 28.2337
3552 3 41.3249 30.4272 26.6635
214522 3 9.44783 36.7738 26.611
214524 3 12.6888 36.8037 26.6416
214526 3 15.8805 36.879 26.5801
3590 3 19.0614 36.8271 26.4928
3592 3 22.1886 36.7345 26.5021
3937 3 33.3276 35.207 28.1543
3598 3 31.6613 36.7986 26.5128
3941 3 39.6517 35.2319 28.0924
214548 3 9.50228 39.9242 26.6658
214550 3 12.7957 40.0084 26.6166
3979 3 17.5192 41.5711 28.18
3955 3 20.6717 38.5239 28.1452
3620 3 25.3166 40.02 26.556
3959 3 26.9495 38.3357 28.154
3961 3 30.169 38.3771 28.2599
3622 3 28.6105 40.0232 26.5781
3624 3 31.7385 40.0445 26.6332
3965 3 36.4655 38.3529 28.1268
3991 3 36.5246 41.6352 28.2218
3628 3 38.1633 39.9351 26.6033
3630 3 41.3004 39.9534 26.5527
268029 3 8.02264 6.56998 31.3818
268032 3 12.6751 8.1862 33.0426
268033 3 14.2262 6.56933 31.3685
57097 3 17.5454 6.49014 31.4357
268034 3 15.878 8.14462 33.0049
57099 3 20.7306 6.51432 31.4877
56760 3 19.1064 8.1395 29.7942
57102 3 25.4401 8.15126 33.0069
57103 3 27.1008 6.49434 31.3935
57105 3 30.1763 6.43642 31.3666
56766 3 28.5833 8.19529 29.735
57106 3 31.7894 8.10444 32.9745
57109 3 36.497 6.44299 31.3575
56772 3 38.1106 8.10772 29.7292
57110 3 38.1415 8.13521 32.9558
214991 3 11.071 9.72905 31.3716
215017 3 11.1712 12.8835 31.3505
214993 3 14.2817 9.80242 31.2786
4083 3 17.5085 12.9724 31.3538
4059 3 20.7117 9.78534 31.48
4085 3 20.6564 12.9169 31.5124
4087 3 23.8927 12.8592 31.3705
4064 3 28.543 11.3295 32.9864
4067 3 33.3104 9.77691 31.385
4093 3 33.2405 12.9709 31.4455
3730 3 35.0245 11.3205 29.793
4095 3 36.5886 12.9751 31.4196
4068 3 34.9606 11.4058 33.0754
4071 3 39.7641 9.81122 31.3514
215043 3 11.1701 16.1228 31.3697
215016 3 9.49485 14.4122 32.9661
215045 3 14.2334 16.113 31.4331
215020 3 15.8211 14.4097 33.0458
3748 3 22.2156 14.5018 29.7965
4115 3 27.0749 16.0924 31.4326
4117 3 30.1857 16.0166 31.4738
4121 3 36.4329 16.183 31.4692
4098 3 41.2987 14.5684 32.9775
214730 3 9.53354 20.8618 29.7738
215042 3 9.54471 17.7559 33.0161
215070 3 12.6082 20.8268 33.006
214708 3 15.9205 17.6903 29.777
214734 3 15.8455 20.826 29.704
3772 3 19.049 17.604 29.7428
4137 3 20.5993 19.3198 31.335
3774 3 22.2245 17.6533 29.8325
4112 3 22.2905 17.6444 32.9679
4114 3 25.3728 17.6654 32.9792
3780 3 31.7335 17.7406 29.868
4145 3 33.3871 19.2816 31.4949
3808 3 34.8867 20.8509 29.7526
4122 3 38.0943 17.7176 33.0895
4148 3 38.0876 20.839 32.9557
215093 3 7.87787 22.4635 31.3303
214756 3 9.46635 24.1389 29.7423
215096 3 12.5714 23.9975 32.957
215097 3 14.2349 22.4584 31.3425
4161 3 17.4127 22.4386 31.2886
4162 3 18.9922 24.0154 32.9591
4164 3 22.3467 23.9563 32.9385
4168 3 28.5417 23.9802 32.9352
3832 3 31.768 23.9535 29.7136
3836 3 38.1263 23.9569 29.8061
4174 3 38.1028 24.1493 33.0512
4176 3 41.3277 24.0481 32.9343
215145 3 7.88084 28.7268 31.419
215122 3 12.6357 27.2408 32.925
214786 3 15.7761 27.1725 29.7989
4213 3 17.4008 28.8369 31.3845
4189 3 20.6913 25.6537 31.4049
3850 3 19.0651 27.2047 29.7423
4215 3 20.7025 28.8816 31.3802
3852 3 22.311 27.2475 29.7047
4217 3 23.8546 28.8453 31.4363
3856 3 28.4919 27.1816 29.8073
3858 3 31.8371 27.1844 29.7535
3862 3 38.1002 27.2981 29.8213
4198 3 34.9612 27.2712 32.9102
214808 3 9.48956 30.3762 29.7801
215173 3 11.1194 32.0229 31.4745
4239 3 17.5349 32.0161 31.3229
214838 3 15.8234 33.5685 29.7331
215176 3 15.8369 33.617 32.9605
4243 3 23.7666 32.0159 31.3964
3904 3 22.2035 33.6273 29.7531
3906 3 25.4281 33.6289 29.7631
3882 3 28.5009 30.4431 29.7506
4247 3 30.1709 31.983 31.3869
3884 3 31.7335 30.3579 29.7063
3886 3 34.9372 30.3274 29.8026
4251 3 36.5504 31.9971 31.4479
3912 3 34.9898 33.6439 29.8045
4253 3 39.6427 31.9056 31.3861
3916 3 41.3013 33.62 29.7596
4254 3 41.3375 33.5382 32.9777
215197 3 7.87981 35.2062 31.3448
214860 3 9.49578 36.8131 29.7297
215201 3 14.2378 35.2955 31.2708
3928 3 19.0765 36.8241 29.8156
4266 3 19.1397 36.8495 32.9327
4271 3 26.9769 35.2636 31.4179
4273 3 30.0849 35.2545 31.3652
3936 3 31.8412 36.8405 29.907
3938 3 34.9906 36.7649 29.9076
4280 3 41.2599 36.8641 32.9275
215225 3 11.1272 38.5194 31.3334
3958 3 25.324 40.0047 29.7718
4294 3 22.1939 40.0052 32.9376
4296 3 25.3497 39.9434 32.9768
4297 3 27.0631 38.3804 31.3892
4325 3 30.1669 41.5199 31.4077
4327 3 33.391 41.5299 31.2813
4305 3 39.6414 38.3657 31.2962
4331 3 39.7025 41.6634 31.2788
268709 3 14.2731 6.51066 37.7132
57775 3 20.6277 6.59573 37.7479
57443 3 30.2131 6.56615 34.5764
57442 3 28.5482 8.1669 36.1904
57785 3 36.5549 6.61915 37.8333
57446 3 34.9617 8.18228 36.2291
57449 3 39.7784 6.5944 34.6189
215328 3 9.54805 11.3151 36.0901
4395 3 17.4205 9.8143 34.5809
215669 3 14.3545 9.76751 37.5967
4735 3 20.6748 9.7553 37.7206
4396 3 19.1245 11.3959 36.0782
4399 3 23.8142 9.75257 34.6129
4425 3 23.8019 12.9014 34.5957
4737 3 23.8706 9.74543 37.7194
4763 3 23.8017 12.9096 37.7961
4429 3 30.1444 12.9434 34.6489
4405 3 33.288 9.7394 34.6331
4404 3 31.7901 11.3434 36.3293
4407 3 36.5985 9.76277 34.6834
4435 3 39.7596 12.835 34.6435
215379 3 7.91962 16.0215 34.5994
215721 3 14.2775 16.0562 37.7313
4422 3 18.9911 14.562 36.1015
4791 3 27.0437 15.9623 37.7825
4793 3 30.266 16.0824 37.7726
4457 3 33.3234 16.1714 34.6747
4432 3 34.9513 14.4829 36.1576
4434 3 38.0648 14.5526 36.1252
4799 3 39.7267 16.0969 37.7905
215743 3 8.04266 19.3043 37.7513
215382 3 12.6354 17.6818 36.1458
215408 3 12.6764 20.8599 36.1705
4473 3 17.3549 19.3113 34.5279
4811 3 17.3858 19.2191 37.7597
4475 3 20.6919 19.2627 34.6098
4815 3 23.8571 19.2732 37.7062
4476 3 22.2802 20.9661 36.1714
4479 3 26.959 19.3625 34.5766
4481 3 30.224 19.276 34.5761
4454 3 28.6128 17.6533 36.1346
4486 3 38.0951 20.8206 36.1555
4462 3 41.3464 17.7175 36.1453
4825 3 39.7505 19.2887 37.8334
215431 3 8.0218 22.4946 34.5847
215436 3 15.754 23.988 36.1476
4500 3 19.108 23.9915 36.207
4504 3 25.3747 24.0914 36.1087
4507 3 30.2173 22.4449 34.5941
4509 3 33.3604 22.4076 34.5023
4847 3 33.4323 22.462 37.7303
4511 3 36.4641 22.4434 34.615
4849 3 36.4516 22.4693 37.7783
215483 3 7.88159 28.7005 34.5513
215795 3 7.92813 25.5839 37.7561
215459 3 10.9973 25.6097 34.667
215823 3 11.0195 28.7233 37.7483
215461 3 14.1931 25.6626 34.5843
4525 3 17.4349 25.7235 34.5179
4863 3 17.4403 25.5774 37.7509
4553 3 20.7432 28.7906 34.5426
4528 3 22.3388 27.1109 36.1259
4893 3 23.8262 28.9113 37.7143
4533 3 30.1981 25.7457 34.4353
4871 3 30.1316 25.5976 37.7538
4532 3 28.5004 27.2469 36.1599
4535 3 33.3273 25.7151 34.6009
4875 3 36.5279 25.6176 37.8021
4538 3 38.193 27.1728 36.1656
4565 3 39.7973 28.8123 34.4823
215484 3 9.49349 30.4936 36.1494
215513 3 14.2258 31.8895 34.5492
4577 3 17.4448 31.9646 34.5825
215851 3 14.3264 31.9496 37.7679
4579 3 20.6882 32.0456 34.5003
4917 3 20.6755 32.0326 37.7521
4583 3 26.9579 32.0129 34.6431
4558 3 28.672 30.4061 36.1514
4587 3 33.3888 31.9775 34.4665
4586 3 31.6965 33.5658 36.0939
4562 3 34.9308 30.4123 36.204
4564 3 38.1338 30.4429 36.1719
215873 3 7.83922 35.1304 37.7282
215875 3 11.1139 35.1878 37.7415
215538 3 12.6512 36.9356 36.1953
215539 3 14.2451 35.275 34.6373
4603 3 17.4566 35.2553 34.5355
4941 3 17.3698 35.2257 37.818
4606 3 22.1786 36.7144 36.043
4608 3 25.3032 36.7748 36.0897
4609 3 26.98 35.2132 34.5531
4949 3 30.0288 35.1739 37.7357
4613 3 33.4021 35.2192 34.5924
4615 3 36.484 35.1285 34.567
4616 3 38.1304 36.804 36.1502
4617 3 39.6213 35.1274 34.5342
4618 3 41.2181 36.8023 36.1542
215561 3 7.90445 38.3506 34.5114
215589 3 11.1581 41.5208 34.4862
215562 3 9.44416 39.9637 36.1674
4629 3 17.3925 38.5222 34.584
4993 3 17.3839 41.5503 37.6856
4969 3 20.6428 38.4149 37.6849
4997 3 23.9409 41.5381 37.6986
4637 3 30.1683 38.4154 34.4367
4661 3 27.0193 41.626 34.5567
4973 3 26.9402 38.3939 37.7346
4636 3 28.5466 39.9728 36.1715
5001 3 30.1194 41.6439 37.7291
4639 3 33.3862 38.3882 34.4937
4665 3 33.3262 41.5408 34.4971
4638 3 31.7745 39.9297 36.2201
4641 3 36.5068 38.37 34.4585
4979 3 36.5672 38.3965 37.7985
4642 3 38.1077 40.042 36.0552
5007 3 39.747 41.6659 37.6999
268706 3 9.54592 8.11283 39.251
268708 3 12.7579 8.08737 39.3817
58111 3 17.5563 6.58115 40.9372
57776 3 22.2346 8.16787 39.4291
57778 3 25.5031 8.0794 39.3687
58121 3 33.3653 6.65306 40.9563
57782 3 31.7408 8.22824 39.379
58125 3 39.7552 6.63804 40.9608
216003 3 7.93056 9.68687 40.9795
215668 3 12.7787 11.338 39.2873
216031 3 11.1198 12.9448 40.864
216007 3 14.336 9.74771 41.0105
4734 3 19.028 11.2945 39.4172
4738 3 25.4937 11.3245 39.4353
4740 3 28.6598 11.3316 39.3988
4744 3 34.8996 11.2971 39.3336
4746 3 38.1706 11.3284 39.3442
4748 3 41.2701 11.2834 39.3625
215696 3 15.8141 14.4049 39.3679
5123 3 17.4833 16.1588 40.9168
4760 3 19.0809 14.4587 39.3505
5125 3 20.7272 16.0461 41.0127
4768 3 31.8326 14.4534 39.362
4772 3 38.0801 14.5038 39.3911
215718 3 9.61163 17.6048 39.314
216085 3 14.1935 19.2246 40.925
5151 3 20.6797 19.1786 40.9278
4812 3 19.0875 20.8649 39.2873
5153 3 23.7569 19.2813 40.8963
4790 3 25.4018 17.6056 39.3267
5157 3 30.1894 19.1227 40.8891
4818 3 28.5324 20.8139 39.2808
4820 3 31.8238 20.7719 39.2481
4796 3 34.9856 17.6511 39.3219
4824 3 38.1116 20.9659 39.4156
215772 3 12.5321 24.0535 39.2631
216111 3 14.1942 22.4215 40.9222
5175 3 17.3887 22.4141 40.8904
5177 3 20.7838 22.4613 40.9454
4842 3 25.3922 23.9586 39.351
5183 3 30.2263 22.4973 40.8419
4852 3 41.3202 24.1025 39.3213
216161 3 10.9741 28.751 40.9221
5201 3 17.4484 25.6174 40.8939
216163 3 14.2791 28.8698 40.8959
215800 3 15.8193 27.2275 39.2961
5229 3 20.6526 28.8195 40.8509
5205 3 23.7686 25.64 40.9154
4868 3 25.4676 27.219 39.2661
5209 3 30.2515 25.6219 40.8873
5233 3 27.0662 28.8759 40.8765
5237 3 33.3464 28.8467 40.843
5239 3 36.5609 28.8447 40.8263
5241 3 39.6898 28.7449 40.8632
215848 3 9.54267 33.5501 39.4077
216189 3 14.298 32.0441 40.9189
5255 3 20.5133 32.0554 40.9247
5257 3 23.7803 31.9992 40.834
4898 3 31.7789 30.4393 39.2125
4924 3 31.7934 33.6335 39.3823
4926 3 34.9169 33.5309 39.3413
4928 3 38.0675 33.6379 39.3027
4904 3 41.3278 30.3422 39.2226
5267 3 39.7332 31.943 40.9499
4930 3 41.3135 33.6703 39.3726
215874 3 9.51419 36.8174 39.3935
215877 3 14.2569 35.2474 37.8639
5281 3 20.5784 35.2238 40.9352
4942 3 18.9669 36.8623 39.3489
5283 3 23.7156 35.2294 40.8996
4946 3 25.4319 36.7191 39.2811
4950 3 31.7449 36.802 39.313
4952 3 34.8812 36.7841 39.3619
215900 3 9.46432 39.8992 39.3022
216265 3 11.0441 41.5963 40.9602
4968 3 18.9841 39.98 39.3825
4970 3 22.2199 40.07 39.3472
5313 3 30.1375 38.4713 40.9273
5337 3 26.9805 41.6051 40.8947
5343 3 36.4043 41.6725 40.9329
5319 3 39.6719 38.3937 40.9155
4982 3 41.2586 40.0427 39.3392
269382 3 9.49901 8.18972 45.6494
269384 3 12.6984 8.1197 45.6438
269385 3 14.3416 6.53498 44.0783
58450 3 19.117 8.14447 45.6733
58453 3 23.7853 6.50526 44.158
58116 3 25.4927 8.0631 42.4899
58454 3 25.387 8.16783 45.7156
58457 3 30.1679 6.57963 44.1207
58461 3 36.5653 6.61232 44.0975
58462 3 38.1102 8.21416 45.6979
216367 3 7.8346 12.9276 44.0324
216004 3 9.52044 11.3095 42.5364
216369 3 11.1948 12.9046 44.1032
216371 3 14.2475 12.8771 44.112
5072 3 18.9917 11.3417 42.5168
5437 3 20.6504 12.9776 44.2123
5413 3 23.8386 9.7726 44.0648
5074 3 22.2445 11.3576 42.5076
5415 3 27.0469 9.7873 44.0572
5416 3 28.6225 11.433 45.6681
5419 3 33.3507 9.7823 44.1381
5080 3 31.6931 11.33 42.4626
5445 3 33.3979 12.9413 44.0816
5084 3 38.0414 11.3546 42.4914
5420 3 34.9943 11.421 45.77
5423 3 39.7452 9.75816 44.0858
5449 3 39.7392 12.8797 44.1384
216393 3 7.83732 16.0915 44.1125
216368 3 9.5465 14.5174 45.7344
216034 3 15.9052 14.4818 42.542
216372 3 15.9405 14.4757 45.6888
5102 3 25.4076 14.4718 42.5384
5440 3 25.462 14.4233 45.7335
5104 3 28.593 14.4104 42.5277
5469 3 30.1493 16.104 44.1669
5106 3 31.7836 14.5608 42.5038
5448 3 38.033 14.5 45.7062
5475 3 39.6949 16.1019 44.1186
5112 3 41.3147 14.5098 42.5257
216056 3 9.61944 17.674 42.4992
216082 3 9.60904 20.8516 42.5002
216394 3 9.53637 17.6679 45.7209
216420 3 9.50571 20.8193 45.6955
216422 3 12.6542 20.8394 45.6405
216423 3 14.3384 19.2276 44.1096
5150 3 19.0257 20.7895 42.5247
5462 3 19.0885 17.6274 45.6873
5488 3 19.095 20.8062 45.7509
5128 3 25.3216 17.5963 42.5822
5154 3 25.3924 20.8689 42.4966
5466 3 25.3572 17.6227 45.7811
5490 3 22.2279 20.7743 45.7881
5493 3 27.0186 19.1891 44.1688
5495 3 30.2174 19.178 44.1895
5156 3 28.6124 20.8935 42.5251
5494 3 28.6211 20.8779 45.7449
5497 3 33.3278 19.2882 44.2138
5158 3 31.8381 20.8972 42.5187
5134 3 34.9077 17.6701 42.4871
5136 3 38.1126 17.7183 42.4344
5472 3 35.036 17.73 45.7346
5474 3 38.1577 17.8046 45.7334
5138 3 41.319 17.7657 42.5604
5164 3 41.2783 20.948 42.5151
5502 3 41.2941 20.8459 45.6916
216445 3 7.8544 22.4015 44.1271
216108 3 9.53053 24.0081 42.4368
216112 3 15.8884 24.0609 42.5733
5515 3 20.7127 22.4525 44.0748
5514 3 19.0123 24.0855 45.6914
5180 3 25.4588 24.1047 42.5312
5516 3 22.2428 24.1207 45.7849
5519 3 26.9228 22.4568 44.2097
5520 3 28.6332 24.0587 45.804
5522 3 31.7623 24.0002 45.7753
5525 3 36.5994 22.3847 44.0736
5186 3 34.9165 23.9982 42.4613
5526 3 38.1417 24.0472 45.676
216471 3 7.93224 25.6046 44.1165
216497 3 7.92946 28.8181 44.0788
216499 3 11.0626 28.845 44.1179
216136 3 12.7064 27.2247 42.5443
216472 3 9.48875 27.1972 45.776
5565 3 17.5044 28.8222 44.1169
216476 3 15.7879 27.2063 45.6884
5567 3 20.6091 28.8321 44.2383
5544 3 25.3591 27.2057 45.7143
5547 3 30.2241 25.6755 44.1273
5208 3 28.6292 27.2925 42.505
5212 3 34.918 27.201 42.4454
5577 3 36.5485 28.8338 44.0336
5550 3 34.9338 27.2439 45.656
5553 3 39.7239 25.5847 44.0163
5216 3 41.4129 27.1881 42.4571
5579 3 39.7454 28.7998 44.0302
216523 3 7.94352 32.0299 44.0591
5591 3 17.5606 32.0354 44.1009
216190 3 15.8364 33.6653 42.5912
216502 3 15.8127 30.45 45.6951
5230 3 22.1908 30.4483 42.5527
5232 3 25.471 30.4153 42.4892
5258 3 25.4237 33.6013 42.4465
5570 3 25.3977 30.4683 45.7794
5260 3 28.6178 33.5813 42.4802
5572 3 28.6296 30.4131 45.6462
5598 3 28.601 33.5837 45.6868
5236 3 31.7206 30.4234 42.5344
5574 3 31.7703 30.4658 45.6547
5600 3 31.8305 33.5766 45.6484
5603 3 36.4954 31.986 44.054
5266 3 38.1325 33.6428 42.4772
5578 3 38.1597 30.3888 45.7355
5580 3 41.3281 30.437 45.7011
5606 3 41.3249 33.6137 45.7668
216549 3 7.91008 35.1972 43.9665
216551 3 11.0614 35.1653 44.0843
216214 3 12.6746 36.778 42.4136
216216 3 15.829 36.7847 42.4993
5284 3 25.4435 36.8427 42.469
5622 3 25.4426 36.8329 45.764
5286 3 28.5501 36.8189 42.4847
5288 3 31.7094 36.7625 42.4983
5629 3 36.4633 35.2056 44.0791
5628 3 34.9087 36.8309 45.7185
5631 3 39.6935 35.2533 44.1707
216575 3 7.9133 38.343 44.0088
216577 3 11.1205 38.4026 44.154
216240 3 12.7411 39.9702 42.5017
216576 3 9.43824 40.0183 45.7262
5643 3 17.5014 38.334 44.094
216242 3 15.8336 39.9587 42.499
5669 3 17.463 41.6692 44.0808
216580 3 15.8624 39.9835 45.6884
5671 3 20.5871 41.6287 44.1325
5308 3 22.2233 39.9709 42.4807
5646 3 22.1665 39.9333 45.6599
5675 3 26.99 41.5823 44.1106
5650 3 28.619 39.9962 45.8042
5653 3 33.3103 38.4361 44.0745
5318 3 38.0559 40.038 42.5341
5654 3 34.8741 40.0944 45.7211
269720 3 9.44211 8.11993 48.9036
58787 3 17.4304 6.53584 47.3086
58789 3 20.6743 6.5326 47.33
58790 3 22.271 8.17391 48.8542
58794 3 28.5914 8.15712 48.9051
58797 3 33.3613 6.6141 47.3341
58800 3 38.1902 8.237 48.8809
58801 3 39.7647 6.53071 47.189
58802 3 41.347 8.12847 48.911
216705 3 7.84589 12.8985 47.3197
216681 3 11.0912 9.72682 47.318
216682 3 12.6521 11.4086 48.883
216683 3 14.3449 9.71664 47.3382
216684 3 15.9415 11.2809 49.0079
5748 3 19.077 11.2677 48.8833
5753 3 26.9918 9.74817 47.3023
5755 3 30.289 9.74109 47.2389
5787 3 39.8072 12.896 47.2776
216706 3 9.53803 14.4515 48.9205
216735 3 14.2612 16.043 47.2934
5774 3 19.0298 14.455 48.8327
5776 3 22.3238 14.4661 48.862
5780 3 28.6908 14.5041 48.7775
5809 3 33.4302 16.0694 47.2871
5813 3 39.826 16.0869 47.3354
216732 3 9.45315 17.6411 48.8609
216736 3 15.8295 17.706 48.9862
216762 3 15.787 20.8429 48.9738
5826 3 19.132 20.8277 48.8936
5832 3 28.5576 20.8053 48.8933
5808 3 31.7275 17.6629 48.8725
5812 3 38.1757 17.7329 48.8782
216784 3 9.47428 24.043 48.8459
5851 3 17.3966 22.4398 47.2995
216788 3 15.7713 24.0778 48.9455
5852 3 19.1216 24.0265 48.8899
5855 3 23.9125 22.4098 47.3229
5858 3 28.6677 24.0335 48.8453
5862 3 34.932 24.0066 48.8502
5865 3 39.7419 22.4906 47.3306
216837 3 11.1211 28.9337 47.331
216812 3 12.6868 27.1154 48.8804
5878 3 19.0498 27.3009 48.8142
5909 3 27.0384 28.847 47.3194
5884 3 28.6139 27.2357 48.925
5913 3 33.3379 28.8178 47.327
5889 3 36.4947 25.5865 47.243
5890 3 38.163 27.2254 48.7856
216861 3 7.9544 31.9937 47.342
216865 3 14.2194 32.0345 47.3806
216840 3 15.9239 30.4289 48.939
5931 3 20.6474 32.0525 47.1832
5930 3 18.961 33.6182 48.8458
5906 3 22.2649 30.4558 48.8233
5934 3 25.4494 33.6361 48.9116
5912 3 31.6789 30.4018 48.9782
5938 3 31.717 33.6107 48.9401
5941 3 36.4702 31.9869 47.3273
5942 3 38.095 33.6525 48.9741
5918 3 41.3247 30.4818 48.8356
216887 3 7.83661 35.1596 47.331
216888 3 9.50499 36.8498 48.86
216890 3 12.6099 36.7248 48.9302
216891 3 14.2658 35.1789 47.2568
5955 3 17.4254 35.2174 47.1937
5959 3 23.7523 35.1703 47.2441
5958 3 22.2047 36.8143 48.9184
5963 3 30.1438 35.267 47.2638
5962 3 28.4691 36.8508 48.936
5965 3 33.4175 35.1896 47.3529
5964 3 31.7693 36.8555 48.9108
5970 3 41.298 36.782 48.8778
216914 3 9.457 39.9166 48.8252
216917 3 14.1866 38.3797 47.2366
216943 3 14.245 41.5936 47.3568
5982 3 19.0435 39.9368 48.7553
6011 3 23.7933 41.5494 47.2607
5986 3 25.4661 39.9589 48.8744
5990 3 31.7849 40.0596 48.8354
5993 3 36.5709 38.4251 47.3092
270395 3 7.87773 6.63897 53.724
270061 3 14.2636 6.57198 50.4669
59125 3 17.4993 6.51161 50.4282
59463 3 17.5143 6.53555 53.5885
270062 3 15.9303 8.23769 52.0205
59130 3 25.4452 8.08832 52.0571
59133 3 30.3056 6.59498 50.5089
59132 3 28.6092 8.16894 52.0768
59473 3 33.3298 6.52098 53.6341
59137 3 36.4519 6.54091 50.4582
59136 3 34.945 8.2015 52.1342
59138 3 38.1727 8.12409 52.0697
217019 3 11.1277 9.72591 50.5365
217357 3 11.0595 9.82228 53.6024
217047 3 14.3003 12.9835 50.5353
217359 3 14.2181 9.79241 53.5587
6113 3 20.7229 12.7997 50.5015
6425 3 20.6587 9.69884 53.5568
6089 3 23.8611 9.80965 50.4046
6427 3 23.9253 9.70662 53.734
6090 3 25.4933 11.3657 52.0827
6093 3 30.2504 9.85246 50.4712
6117 3 27.0549 12.9778 50.4727
6457 3 30.1559 12.991 53.6239
6095 3 33.3497 9.78198 50.3894
6121 3 33.3604 12.9728 50.4427
6097 3 36.4974 9.84584 50.4645
6435 3 36.5162 9.87842 53.7333
6125 3 39.7953 13.0151 50.4316
6437 3 39.7196 9.7889 53.6265
217071 3 11.1434 16.125 50.5365
217044 3 9.41615 14.4174 52.07
217409 3 11.069 16.1837 53.6912
217411 3 14.3276 16.1011 53.678
6139 3 20.6222 16.1427 50.3695
6112 3 19.0054 14.484 52.1338
6147 3 33.4964 16.1023 50.4111
6485 3 33.4122 16.1419 53.6711
6124 3 38.1074 14.5534 52.1289
217433 3 7.97116 19.1774 53.6312
217096 3 9.50403 20.8771 52.0716
217437 3 14.2571 19.2502 53.7504
217100 3 15.8858 20.8039 52.0594
6138 3 18.9889 17.6645 52.1362
6167 3 23.8506 19.2331 50.431
6140 3 22.2402 17.6336 52.0791
6166 3 22.1422 20.846 52.0471
6507 3 26.9362 19.3164 53.6435
6144 3 28.5473 17.6542 52.0387
6509 3 30.1266 19.3465 53.6721
6146 3 31.7638 17.6883 52.0326
6175 3 36.4998 19.3264 50.41
6150 3 38.1243 17.6607 52.0918
6174 3 34.8166 20.8872 52.0619
6176 3 38.1538 20.7917 52.0849
6152 3 41.2909 17.7144 52.0493
6178 3 41.3975 20.8733 52.0378
217123 3 11.1839 22.4365 50.4702
6527 3 17.5372 22.4258 53.6869
217126 3 15.8172 24.0716 52.1042
6193 3 23.8326 22.4145 50.4219
6531 3 23.846 22.4069 53.6764
6194 3 25.3825 24.0495 52.0336
6535 3 30.129 22.4211 53.7514
6196 3 28.6332 23.985 51.991
6202 3 38.0732 24.1702 52.0026
6203 3 39.7008 22.452 50.3793
6204 3 41.2613 24.1293 52.0608
217147 3 7.87408 25.6583 50.4153
217173 3 7.86219 28.8635 50.3941
217485 3 7.93757 25.6709 53.6723
217148 3 9.51066 27.312 52.0648
217152 3 15.8113 27.2648 52.1808
6217 3 20.6248 25.7028 50.5512
6243 3 20.6047 28.8466 50.5158
6245 3 23.7817 28.8317 50.4563
6557 3 23.7847 25.7013 53.6741
6220 3 25.4015 27.249 52.0077
6559 3 26.9995 25.6609 53.7227
6561 3 30.1193 25.6124 53.7053
6585 3 27.0032 28.8154 53.7219
6225 3 33.2739 25.6355 50.4055
6563 3 33.3862 25.6605 53.6971
6224 3 31.709 27.3181 52.0754
6253 3 36.5147 28.8479 50.4097
6591 3 36.5688 28.7318 53.6576
6255 3 39.761 28.8691 50.4348
217201 3 11.0468 31.9802 50.405
217176 3 12.7748 30.387 52.095
217539 3 11.1385 32.062 53.679
217202 3 12.6703 33.6816 51.978
6605 3 17.3422 32.0198 53.6764
6242 3 19.0016 30.427 52.141
6268 3 19.008 33.6516 52.087
6244 3 22.1925 30.4701 52.1739
6246 3 25.421 30.4877 52.021
6270 3 22.2422 33.6653 52.1742
6611 3 27.0243 32.1049 53.6518
6248 3 28.6686 30.4281 52.0168
6277 3 33.337 32.002 50.5419
6254 3 38.0755 30.5006 52.0147
6278 3 35.0176 33.5717 52.1268
6619 3 39.7498 32.0036 53.6658
6282 3 41.3115 33.6253 52.0293
217225 3 7.83112 35.1547 50.4381
217226 3 9.51876 36.794 52.0219
217230 3 15.8462 36.8038 52.0566
6298 3 25.4078 36.7534 51.9764
6639 3 30.2105 35.2053 53.5414
6303 3 33.3873 35.2394 50.5548
6306 3 38.0823 36.6798 52.0385
217277 3 7.77487 41.5439 50.4912
217589 3 7.79011 38.3861 53.6772
217591 3 11.1018 38.4467 53.7136
217252 3 9.45185 39.9743 52.0445
217255 3 14.1866 38.4717 50.4574
6319 3 17.4882 38.3543 50.4256
217619 3 14.238 41.4511 53.6786
6683 3 17.4451 41.5584 53.6181
6347 3 20.6591 41.5883 50.4523
6322 3 22.1755 39.9368 52.0317
6687 3 23.8295 41.6108 53.6012
6327 3 30.1553 38.4446 50.5808
6351 3 27.0366 41.6281 50.5156
6691 3 30.1071 41.5151 53.6088
6667 3 33.3091 38.3495 53.6079
6357 3 36.3815 41.5976 50.4248
6332 3 38.0627 39.9422 52.0147
6671 3 39.8056 38.2935 53.6554
6697 3 39.7173 41.5359 53.6526
270735 3 11.0799 6.60676 56.9064
270737 3 14.2089 6.55507 56.8707
59801 3 17.5424 6.5917 56.8271
59470 3 28.623 8.02304 55.2834
59472 3 31.8562 8.15824 55.2944
59813 3 36.5361 6.56628 56.8472
59478 3 41.3685 8.1743 55.2342
217693 3 7.93325 9.74825 56.8047
217697 3 14.1975 9.7746 56.851
6761 3 17.5407 9.70573 56.859
217360 3 15.8891 11.3855 55.1886
6424 3 19.0433 11.3763 55.2143
6789 3 20.7494 13.0122 56.8484
6426 3 22.286 11.2622 55.3253
6769 3 30.2409 9.78093 56.8563
6430 3 28.5605 11.3907 55.2783
6795 3 30.2088 12.9899 56.9032
6775 3 39.733 9.7618 56.8859
6438 3 41.3527 11.3696 55.1788
217384 3 12.7041 14.3984 55.1973
6454 3 25.4757 14.5312 55.228
6460 3 34.8903 14.4451 55.2823
6825 3 36.5359 16.0297 56.8883
6476 3 19.0208 17.5842 55.2229
6478 3 22.2581 17.6465 55.2168
6504 3 22.1961 20.7928 55.2615
6847 3 30.1567 19.406 56.8559
6484 3 31.684 17.5928 55.3098
6851 3 36.4459 19.2069 56.8559
6488 3 38.1415 17.6705 55.2034
6512 3 34.9275 20.9146 55.2556
217797 3 7.91102 22.4323 56.856
217799 3 11.1414 22.3949 56.9303
217462 3 12.7083 24.0594 55.232
217801 3 14.3182 22.3894 56.8473
6865 3 17.4159 22.4376 56.7795
6530 3 22.1139 24.1104 55.2111
6875 3 33.3081 22.4565 56.9128
6540 3 38.0973 24.1881 55.2816
6879 3 39.7528 22.4873 56.8442
217823 3 7.96329 25.6746 56.8493
217849 3 7.92468 28.8151 56.8537
217853 3 14.2328 28.831 56.7973
6917 3 17.425 28.8785 56.8414
6554 3 19.0265 27.251 55.2238
6556 3 22.1658 27.3022 55.2723
6899 3 30.1381 25.6253 56.8014
6923 3 27.0123 28.8573 56.9023
6927 3 33.3112 28.8349 56.8227
6929 3 36.5818 28.8681 56.8017
6568 3 41.2291 27.2819 55.2508
217875 3 7.90943 32.0704 56.947
217512 3 9.52415 30.4248 55.2495
217879 3 14.2342 32.0174 56.9098
217542 3 15.7766 33.6469 55.2948
6947 3 23.6919 31.9945 56.8795
6584 3 25.3572 30.4738 55.2553
6951 3 30.1515 31.9553 56.8338
6588 3 31.71 30.3946 55.1147
6590 3 34.9364 30.4779 55.1888
6618 3 38.1838 33.6878 55.2594
217901 3 7.93151 35.2076 56.8733
217903 3 11.0563 35.1829 56.8533
217566 3 12.7399 36.8346 55.3259
6969 3 17.4397 35.1444 56.868
217568 3 15.8261 36.9081 55.3119
6971 3 20.6145 35.1211 56.7806
6636 3 25.3309 36.6727 55.2117
6638 3 28.5911 36.7563 55.1592
6979 3 33.3349 35.0794 56.7875
6981 3 36.483 35.1788 56.8881
217953 3 7.86122 41.5834 56.8648
217929 3 11.037 38.4822 56.8739
6658 3 19.046 39.9437 55.2304
6660 3 22.2133 39.9856 55.309
6662 3 25.4129 39.9787 55.1902
7001 3 27.0078 38.3678 56.8219
7003 3 30.1672 38.4583 56.8068
7027 3 26.9825 41.6482 56.7423
7031 3 33.2897 41.5644 56.8386
7033 3 36.463 41.5843 56.9013
6670 3 38.0914 39.9215 55.2893
212546 3 9.44019 43.1031 7.46223
212548 3 12.7314 43.1053 7.41405
212574 3 12.6044 46.3655 7.48379
212600 3 12.5919 49.5183 7.51415
212576 3 15.8399 46.2654 7.45862
1642 3 22.1946 46.3667 7.38229
1644 3 25.4409 46.2512 7.50226
229862 3 9.46274 52.657 7.50349
229864 3 12.6673 52.7363 7.41085
18932 3 22.1893 52.658 7.57189
18936 3 28.5809 52.6047 7.47225
18938 3 31.7429 52.7039 7.40498
18942 3 38.0944 52.7894 7.51702
18960 3 25.3335 55.8251 7.46918
18966 3 34.9717 56.0148 7.43935
212909 3 7.85768 44.7261 9.11565
212911 3 11.0685 44.7126 9.132
213249 3 11.0422 44.6177 12.2013
213251 3 14.1758 44.6926 12.1846
2315 3 17.4057 44.7618 12.2568
1952 3 18.9496 43.1542 10.566
1954 3 22.2192 43.202 10.6168
1960 3 31.7626 43.246 10.6551
1989 3 36.5182 44.8137 9.0387
1964 3 38.0952 43.2105 10.6887
2329 3 39.7446 44.802 12.3028
2003 3 17.5071 48.0295 9.00558
212914 3 15.8106 46.353 10.5937
213277 3 14.2178 48.0597 12.2897
2341 3 17.4029 48.0969 12.2477
1978 3 19.03 46.3452 10.6157
2343 3 20.6228 48.056 12.2878
1980 3 22.21 46.3396 10.6088
2345 3 23.7603 47.9486 12.2325
2008 3 25.4064 49.5895 10.6586
2347 3 26.9914 47.9201 12.2543
1984 3 28.5893 46.3402 10.602
2013 3 33.3581 47.8538 9.05851
2351 3 33.2347 47.8664 12.3009
2014 3 34.9609 49.5394 10.7165
2016 3 38.0848 49.531 10.6626
2017 3 39.6567 47.8433 9.02559
2018 3 41.3758 49.5083 10.669
230537 3 7.91943 51.0416 12.2358
230539 3 11.0861 51.0759 12.2464
230202 3 12.6553 52.784 10.6182
230203 3 14.2923 51.1454 9.14397
19268 3 19.0141 52.706 10.5618
19633 3 20.6861 54.2391 12.1938
19272 3 25.2526 52.6366 10.6726
19299 3 26.9931 54.2649 9.10531
19301 3 30.1461 54.3538 9.07303
19613 3 30.168 51.1013 12.2006
19277 3 33.3803 51.0836 8.9805
19303 3 33.3688 54.3587 9.07752
19643 3 36.4657 54.3445 12.2824
19281 3 39.7604 51.178 9.03617
19619 3 39.7809 51.1962 12.2672
230253 3 11.0139 57.4481 9.02971
230255 3 14.2808 57.4612 9.03968
19319 3 17.421 57.4047 9.06015
19659 3 20.6459 57.4519 12.191
19323 3 23.7464 57.485 9.07946
19298 3 25.3628 55.9067 10.7075
19329 3 33.3552 57.5824 9.04423
19667 3 33.4806 57.4726 12.1968
19306 3 38.1279 55.8613 10.6183
19333 3 39.7728 57.4318 8.95864
19671 3 39.7146 57.513 12.3013
19308 3 41.4595 55.8254 10.6854
213585 3 7.94514 44.7047 15.4133
213226 3 15.8103 43.0824 13.867
2290 3 19.0033 43.1631 13.9031
2292 3 22.2204 43.2042 13.8401
2294 3 25.485 43.159 13.7955
2632 3 25.3776 43.238 17.1023
2296 3 28.6111 43.1601 13.8947
2634 3 28.6929 43.1037 17.0609
2298 3 31.7564 43.1976 13.9907
2638 3 34.8674 43.2565 16.9949
2667 3 39.7296 44.7758 15.3883
213611 3 7.8948 47.9707 15.4726
213248 3 9.47345 46.3874 13.735
213250 3 12.6151 46.3346 13.8914
213614 3 12.6399 49.4676 16.9655
213590 3 15.7864 46.3701 16.9443
2654 3 19.0021 46.4533 16.9341
2683 3 23.774 47.9536 15.3876
2320 3 25.4234 46.2819 13.8332
2656 3 22.2196 46.3198 17.0253
2682 3 22.1751 49.5702 17.0553
2684 3 25.348 49.6806 17.0355
2322 3 28.6446 46.3084 13.8966
2660 3 28.6413 46.3318 17.0843
2686 3 28.6064 49.5632 17.0529
2326 3 35.0008 46.3321 13.9117
2352 3 34.9661 49.5697 13.8428
2354 3 38.0658 49.554 13.8422
2666 3 38.1212 46.3636 17.0171
2690 3 34.9583 49.523 17.0098
2356 3 41.4404 49.436 13.8537
230901 3 7.87992 54.3247 15.408
230876 3 9.49308 52.739 17.0299
230878 3 12.6725 52.7636 16.8883
230542 3 15.7915 52.7442 13.8078
230880 3 15.8478 52.7404 16.9381
19945 3 20.5397 51.1529 15.4276
19606 3 18.932 52.7898 13.8129
19973 3 23.7573 54.2602 15.4672
19951 3 30.2657 51.1358 15.4407
19975 3 26.8796 54.2746 15.4028
19612 3 28.5118 52.6346 13.85
19953 3 33.2722 51.161 15.4432
230564 3 9.52792 55.9809 13.8308
230902 3 9.51065 55.9424 16.9764
230931 3 14.2629 57.4329 15.3905
19995 3 17.4084 57.4729 15.4396
19634 3 22.1814 55.8941 13.8571
19999 3 23.8412 57.4502 15.473
19638 3 28.5685 55.8652 13.8007
20003 3 30.1795 57.4845 15.447
19976 3 28.5771 55.8163 17.0715
19640 3 31.8622 55.838 13.8362
19980 3 34.9402 55.8036 16.968
20009 3 39.7683 57.513 15.3926
213923 3 8.01364 44.7828 18.5456
2991 3 17.3822 44.6906 18.6021
2993 3 20.6294 44.7338 18.6647
2970 3 25.3422 43.0557 20.2447
3003 3 36.5381 44.7667 18.6189
2980 3 41.2378 43.2355 20.2545
213926 3 12.6241 46.3048 20.0742
213952 3 12.6019 49.4726 20.1446
2992 3 18.98 46.3758 20.2264
3018 3 18.9126 49.5219 20.1653
2996 3 25.3891 46.3827 20.2025
3027 3 33.277 47.9248 18.5335
3000 3 31.6571 46.3825 20.1964
3002 3 34.905 46.3583 20.2119
3028 3 34.8645 49.5585 20.272
231217 3 14.2727 51.098 18.5553
20282 3 18.9642 52.7541 20.1306
20286 3 25.3352 52.7837 20.1122
20290 3 31.7532 52.6479 20.1659
20293 3 36.5977 51.1934 18.5864
20295 3 39.6718 51.056 18.5183
20296 3 41.2228 52.7305 20.241
231267 3 11.1048 57.6035 18.5697
231240 3 9.48183 55.8839 20.1038
231269 3 14.2522 57.4416 18.5118
20337 3 23.7508 57.467 18.567
20310 3 22.0839 55.8812 20.2162
20314 3 28.5523 55.8228 20.1716
20343 3 33.3793 57.517 18.657
20316 3 31.7308 55.8612 20.228
20345 3 36.541 57.4617 18.6779
214236 3 9.46234 43.1678 23.3448
214601 3 11.1246 44.6978 24.9869
214238 3 12.7523 43.1096 23.3505
214265 3 14.3224 44.7193 21.6661
3331 3 20.6541 44.7335 21.7994
3304 3 19.0868 43.1912 23.4636
3671 3 23.8024 44.8347 25.0098
3308 3 25.2808 43.1051 23.351
3339 3 33.2263 44.7275 21.7877
3677 3 33.2751 44.8313 25.0004
3314 3 34.9524 43.2137 23.3345
3316 3 38.119 43.2558 23.3685
214262 3 9.52814 46.2809 23.2838
214627 3 11.1072 47.9503 24.9472
214288 3 9.48631 49.5096 23.3166
214291 3 14.328 47.9238 21.7137
214629 3 14.2821 47.9211 24.9154
214266 3 16.0051 46.2748 23.3651
3332 3 22.1575 46.4397 23.3791
3697 3 23.7738 47.9598 25.065
3360 3 25.4093 49.5673 23.4526
3336 3 28.6134 46.3429 23.329
3362 3 28.6194 49.5051 23.4719
3364 3 31.838 49.5827 23.3535
3340 3 34.9582 46.4623 23.3817
3369 3 39.6178 47.9227 21.8138
3344 3 41.2675 46.3291 23.4699
231551 3 7.88962 51.1671 21.7185
231889 3 7.91266 51.1507 25.0802
231553 3 11.0987 51.1789 21.7225
231579 3 11.0841 54.3505 21.732
231552 3 9.42825 52.7844 23.378
231917 3 11.0683 54.3553 24.9777
231555 3 14.2912 51.1377 21.7677
20645 3 17.3595 54.4403 21.7078
231893 3 14.285 51.1221 24.9173
20957 3 17.532 51.1699 24.9171
20983 3 17.4444 54.3878 24.9241
20621 3 20.642 51.1514 21.7242
20959 3 20.6678 51.1857 24.9704
20985 3 20.5678 54.2822 24.9188
20623 3 23.7505 51.1265 21.7346
20987 3 23.7725 54.3045 24.8975
20625 3 27.067 51.1245 21.7093
20989 3 26.9833 54.2627 24.8789
20991 3 30.2401 54.2885 24.9031
20655 3 33.3549 54.2716 21.8556
20631 3 36.5337 51.2032 21.8267
20995 3 36.4926 54.2565 24.945
20971 3 39.728 51.1919 24.9884
20997 3 39.7038 54.3252 25.0417
231603 3 7.885 57.4795 21.778
231941 3 7.93244 57.5689 24.9635
231943 3 11.0331 57.5465 24.9778
21009 3 17.452 57.488 24.8258
21011 3 20.5707 57.5244 24.9237
20675 3 23.8604 57.4199 21.8148
20652 3 28.6502 55.884 23.3029
21015 3 26.9947 57.5145 24.9181
20656 3 34.9202 55.9898 23.3309
21021 3 36.4668 57.5866 24.9639
20685 3 39.7646 57.5764 21.7346
20660 3 41.3347 55.9072 23.3857
214574 3 9.5528 43.0809 26.6929
214576 3 12.7331 43.0846 26.6782
3644 3 22.1116 43.1331 26.5865
3646 3 25.3338 43.1686 26.5961
3648 3 28.6852 43.2408 26.5823
3988 3 31.7781 43.2185 29.6624
3652 3 34.8814 43.2365 26.6338
3656 3 41.3309 43.2581 26.5715
214963 3 7.89457 47.9655 28.1795
214600 3 9.53257 46.3025 26.6318
214602 3 12.7203 46.3108 26.6799
214628 3 12.6535 49.5062 26.6813
214604 3 15.9013 46.2629 26.5786
4031 3 17.5252 47.8232 28.1827
214630 3 15.9319 49.4753 26.5574
3694 3 19.084 49.5368 26.5633
4035 3 23.7785 47.9259 28.1003
4037 3 26.9574 47.8985 28.1048
3674 3 28.6088 46.3017 26.5433
3702 3 31.8233 49.5408 26.4783
3680 3 38.1843 46.3714 26.5872
4043 3 36.4324 47.9836 28.1207
3706 3 38.054 49.5988 26.4932
232227 3 7.89455 51.1436 28.173
232253 3 7.8783 54.2915 28.1651
231892 3 12.6324 52.7358 26.6335
232231 3 14.2981 51.1037 28.2419
232257 3 14.2754 54.3466 28.2406
231894 3 15.9333 52.7178 26.6207
20962 3 25.4003 52.6313 26.5833
21305 3 33.4157 51.1502 28.2114
20966 3 31.8116 52.7227 26.5457
21307 3 36.4688 51.209 28.1491
232279 3 7.95219 57.5616 28.1653
231918 3 12.6633 55.978 26.6411
20986 3 22.1742 55.8464 26.605
21351 3 23.8429 57.5413 28.166
20990 3 28.5727 55.8734 26.5743
21355 3 30.1598 57.5394 28.1743
20992 3 31.8711 55.9209 26.5332
21357 3 33.4027 57.6299 28.1749
20996 3 38.0555 55.9524 26.6382
214912 3 9.43689 43.0877 29.7912
215250 3 9.39057 43.1051 32.9063
215252 3 12.8097 43.1334 32.8871
214916 3 15.8551 43.172 29.7877
4345 3 20.6744 44.6753 31.3774
4318 3 18.9482 43.0929 32.9327
3986 3 28.6304 43.259 29.7096
4349 3 26.8768 44.7544 31.3105
4326 3 31.7032 43.2985 32.9856
4355 3 36.5473 44.7359 31.3313
4328 3 34.9441 43.1619 32.9376
214938 3 9.47643 46.2492 29.7672
215303 3 11.0895 47.9068 31.3703
214940 3 12.7212 46.3067 29.6971
215276 3 9.43984 46.2594 32.9597
215302 3 9.46742 49.5265 33.0691
215304 3 12.6891 49.5624 32.984
215305 3 14.3483 47.871 31.3339
4369 3 17.4607 47.9233 31.3225
215306 3 15.9449 49.5181 33.0165
4032 3 19.134 49.5486 29.72
4344 3 18.9961 46.3208 33.0129
4008 3 22.1745 46.3686 29.7813
4372 3 22.3083 49.4473 32.9247
4375 3 26.951 47.9112 31.3731
4038 3 28.5747 49.5005 29.7509
4350 3 28.5928 46.3221 33.0087
4040 3 31.8022 49.4528 29.7973
4378 3 31.7685 49.4831 32.9038
4016 3 34.8664 46.3681 29.7381
4381 3 36.4429 47.9901 31.409
4018 3 38.1852 46.3975 29.7319
4356 3 38.1843 46.421 32.9874
4382 3 38.1235 49.6234 32.9586
4020 3 41.2877 46.3586 29.7143
4358 3 41.3713 46.4238 33.0007
232565 3 7.90161 51.1843 31.373
232567 3 11.1079 51.1646 31.3446
232228 3 9.55335 52.759 29.7291
232569 3 14.3308 51.1465 31.3461
21659 3 17.5155 54.3481 31.3062
21635 3 20.6907 51.1579 31.3625
21637 3 23.8954 51.1913 31.3058
21663 3 23.8571 54.2545 31.3869
21641 3 30.1991 51.1711 31.3445
21302 3 28.53 52.7335 29.7179
21640 3 28.5854 52.7481 33.0204
21669 3 33.3658 54.2958 31.332
21645 3 36.3914 51.2027 31.356
21647 3 39.8245 51.2141 31.2703
232619 3 11.04 57.5714 31.3131
232596 3 15.7737 55.8921 32.8762
21324 3 22.121 55.8823 29.7578
21689 3 23.805 57.4821 31.4002
21326 3 25.4271 55.8249 29.6969
21330 3 31.7853 55.8952 29.77
21697 3 36.4848 57.5519 31.3124
21334 3 38.0506 55.9188 29.7042
21672 3 38.1235 55.9295 32.978
21336 3 41.327 56.0336 29.7346
215951 3 7.82655 44.7794 37.6843
215588 3 9.43857 43.1394 36.0902
215953 3 11.063 44.7945 37.7998
215590 3 12.7682 43.0832 36.1657
215955 3 14.3314 44.8443 37.6613
5019 3 17.4632 44.7535 37.6908
4683 3 20.6304 44.6764 34.5689
4685 3 23.7993 44.716 34.5101
5027 3 30.1303 44.8027 37.6931
4666 3 34.9285 43.2022 36.1534
4668 3 38.0742 43.2703 36.1173
215614 3 9.46299 46.3672 36.0789
215642 3 12.6657 49.5703 36.1472
215643 3 14.3079 47.8445 34.5952
5045 3 17.3799 47.962 37.7748
4708 3 19.0386 49.5048 36.1891
4684 3 22.24 46.3852 36.1737
4686 3 25.4605 46.3368 36.1926
4715 3 30.157 47.9662 34.6635
4717 3 33.4022 47.9728 34.5351
5055 3 33.3237 48.0117 37.7786
4692 3 34.9356 46.2979 36.1594
4720 3 38.1443 49.4779 36.1727
4722 3 41.3208 49.4836 36.1717
232904 3 9.48497 52.7188 36.0779
233269 3 11.1385 54.3251 37.7479
21997 3 17.4725 54.3363 34.5984
232908 3 15.897 52.6819 36.267
21973 3 20.6443 51.1125 34.6088
21999 3 20.676 54.349 34.6079
22337 3 20.6342 54.3051 37.666
21975 3 23.8647 51.1332 34.6361
22313 3 23.8482 51.0683 37.7592
22339 3 23.7898 54.2676 37.8069
21978 3 28.4614 52.7138 36.1397
22343 3 30.1223 54.4158 37.7466
21981 3 33.4192 51.1307 34.5678
22319 3 33.3539 51.1372 37.7501
21980 3 31.7335 52.7764 36.0857
22345 3 33.3927 54.3479 37.7425
22009 3 36.55 54.281 34.599
22321 3 36.5206 51.2264 37.7347
21985 3 39.6965 51.2166 34.5571
22323 3 39.7148 51.2459 37.7684
232930 3 9.46289 55.9284 35.9645
233295 3 11.0377 57.563 37.6769
22361 3 17.5005 57.4503 37.6622
22002 3 25.348 55.8383 36.0948
22029 3 27.0711 57.4446 34.5121
22031 3 30.1372 57.4703 34.6003
22367 3 27.0632 57.4174 37.6716
22033 3 33.3368 57.5143 34.6202
22373 3 36.4858 57.5799 37.7377
216289 3 7.99476 44.7163 40.8798
215928 3 12.7646 43.1579 39.3547
4994 3 19.0789 43.1555 39.4115
5361 3 23.9048 44.7507 40.8968
5002 3 31.6973 43.1931 39.396
5367 3 33.3946 44.7442 41.0022
5006 3 38.0558 43.273 39.3336
5371 3 39.633 44.8368 40.9123
215978 3 9.45858 49.494 39.2705
215980 3 12.7679 49.5253 39.3895
5385 3 20.6247 47.9708 40.897
5022 3 22.2587 46.3549 39.2354
5387 3 23.8558 47.9429 40.9089
5026 3 28.4999 46.3639 39.3838
5052 3 28.5484 49.5293 39.3513
5030 3 34.9373 46.3521 39.3653
5395 3 36.513 47.9132 41.0413
233579 3 7.93582 51.126 40.9406
233242 3 9.50915 52.759 39.369
22647 3 17.4524 51.1436 40.9193
233609 3 14.2544 54.3801 40.8654
22675 3 20.6758 54.3325 40.8383
22316 3 28.5435 52.6779 39.354
22681 3 30.1303 54.2837 41.028
22657 3 33.3159 51.0714 40.9463
22661 3 39.6782 51.1453 40.8726
233268 3 9.46682 55.9799 39.3716
22703 3 23.7576 57.3975 40.862
22707 3 30.1687 57.4836 40.9445
22348 3 38.0887 55.8442 39.2859
22711 3 36.5735 57.5845 40.8826
216627 3 7.90638 44.709 44.1271
216629 3 11.1077 44.7199 43.9931
216604 3 12.6445 43.1485 45.6818
216631 3 14.3274 44.8171 44.0854
5334 3 22.236 43.1436 42.4775
5699 3 23.8667 44.7614 44.0925
5340 3 31.6683 43.1625 42.5636
5678 3 31.8092 43.1058 45.6938
5707 3 36.4695 44.8542 44.0715
5682 3 38.0296 43.2148 45.699
5346 3 41.2441 43.2149 42.5461
5684 3 41.267 43.1515 45.6901
216655 3 11.1717 47.9636 43.9882
216628 3 9.50408 46.3689 45.6679
216654 3 9.47853 49.5435 45.6946
5721 3 17.3979 47.9265 44.0716
216658 3 15.8706 49.6011 45.7278
5358 3 18.965 46.2792 42.49
5723 3 20.6194 47.8914 44.1396
5726 3 25.3566 49.4314 45.6733
5727 3 27.0456 47.8786 44.0926
5729 3 30.1446 47.9021 44.0892
5732 3 34.8844 49.4615 45.6796
5372 3 41.3221 46.4418 42.4598
5735 3 39.5512 48.0083 44.1116
5710 3 41.2602 46.382 45.6891
233919 3 10.9849 51.1343 43.9848
233582 3 12.6121 52.7638 42.4302
233920 3 12.5807 52.8011 45.6339
233921 3 14.2529 51.1331 44.0181
23011 3 17.4033 54.1993 44.0585
22989 3 23.772 51.1106 44.0791
22650 3 22.1399 52.6447 42.4527
23015 3 23.7511 54.3762 44.0728
22990 3 25.417 52.706 45.6316
22993 3 30.1565 51.0732 43.9635
22992 3 28.5463 52.6387 45.6378
22995 3 33.3688 51.1079 44.065
23021 3 33.439 54.3079 44.1376
22994 3 31.7293 52.6125 45.7423
22660 3 38.0133 52.7583 42.495
23000 3 41.2059 52.7635 45.6561
233969 3 7.83417 57.4456 44.0732
233971 3 11.0684 57.4997 44.0086
233973 3 14.2016 57.4726 44.0776
22674 3 19.0217 55.8713 42.4807
23012 3 19.013 55.9274 45.6576
22678 3 25.5127 55.884 42.4605
23045 3 30.1117 57.5418 44.0384
23018 3 28.5502 55.8691 45.6147
23049 3 36.5186 57.4284 44.0776
22688 3 41.2376 55.91 42.4497
216940 3 9.42874 43.091 48.7915
6035 3 20.6786 44.7805 47.1741
6008 3 19.0578 43.1708 48.861
6039 3 27.0314 44.7727 47.3333
6041 3 30.1414 44.7614 47.2958
6043 3 33.3633 44.78 47.3113
6020 3 38.1091 43.182 48.8715
216968 3 12.6105 46.3328 48.8029
216992 3 9.4635 49.5526 48.8482
216995 3 14.2294 47.9662 47.2584
6034 3 19.0078 46.3578 48.8389
6060 3 18.9526 49.5209 48.7452
6062 3 22.1663 49.5117 48.7472
6064 3 25.4186 49.406 48.8022
6067 3 30.1447 47.8975 47.3011
6071 3 36.4678 47.9321 47.2976
6046 3 38.0399 46.2856 48.8885
6073 3 39.6208 47.9464 47.285
6074 3 41.3443 49.5361 48.8597
234281 3 7.8767 54.3864 47.2777
234256 3 9.43308 52.777 48.8924
234258 3 12.6284 52.6724 48.8251
23349 3 17.4454 54.3028 47.2833
234260 3 15.7789 52.6495 48.8646
23325 3 20.6535 51.2305 47.15
23328 3 25.3457 52.7405 48.8326
23357 3 30.1103 54.2781 47.3322
23337 3 39.5432 51.2016 47.3007
234309 3 11.011 57.4762 47.1808
234284 3 12.5711 55.9007 48.8898
234311 3 14.2357 57.5044 47.2286
23377 3 20.6822 57.4426 47.3278
23354 3 25.3355 55.8895 48.8516
23381 3 26.8932 57.5604 47.2111
23383 3 30.1546 57.5494 47.2773
23358 3 31.8436 55.9064 48.8538
23360 3 34.9289 55.9098 48.7891
23362 3 38.0458 55.9558 48.8412
23364 3 41.2348 55.9307 48.8645
217303 3 7.95878 44.7633 50.483
217641 3 7.87279 44.6961 53.6428
217280 3 12.6305 43.1099 52.0252
217643 3 11.0554 44.791 53.6193
217307 3 14.2651 44.6886 50.3672
6371 3 17.4163 44.7955 50.4917
6709 3 17.3972 44.749 53.5991
6711 3 20.6812 44.673 53.6592
6375 3 23.8753 44.7891 50.4204
6715 3 26.9816 44.6709 53.5833
6354 3 31.7961 43.1801 51.9627
6358 3 38.1436 43.1581 51.991
6721 3 36.4628 44.751 53.5737
6723 3 39.7659 44.7796 53.6033
217306 3 12.6675 46.3746 51.9627
217330 3 9.46451 49.5227 52.1004
217671 3 14.1722 48.0047 53.6565
6735 3 17.4612 48.003 53.5646
6374 3 22.2615 46.3843 52.14
6378 3 28.5643 46.3987 51.9708
6380 3 31.7182 46.3537 51.9285
6382 3 34.8304 46.4187 51.9485
6384 3 38.1221 46.3728 51.9704
6747 3 36.5064 48.0607 53.6423
6412 3 41.299 49.53 51.9961
234931 3 7.77803 51.0716 53.6754
234595 3 11.0759 51.1084 50.5037
234594 3 9.34441 52.7532 52.0444
234959 3 11.1258 54.3533 53.5652
23661 3 17.463 51.1625 50.5385
234935 3 14.1944 51.1623 53.616
23665 3 23.777 51.1123 50.4307
23664 3 22.2337 52.728 52.0807
24005 3 26.8839 51.0255 53.6176
23668 3 28.5681 52.6714 52.088
23670 3 31.7395 52.6735 52.0503
23673 3 36.4675 51.098 50.3517
23672 3 34.824 52.6685 52.1167
24037 3 36.4415 54.3611 53.7311
23674 3 38.1193 52.8065 52.0227
24013 3 39.6367 51.1314 53.6601
234983 3 7.86947 57.4391 53.6614
234985 3 11.0757 57.5165 53.7278
234649 3 14.2159 57.5378 50.5498
23713 3 17.4328 57.6131 50.4772
234624 3 15.8359 55.8403 52.0692
23688 3 19.0216 55.8787 52.0344
24053 3 20.638 57.4996 53.6854
23717 3 23.7481 57.5521 50.4241
23690 3 22.2078 55.8768 52.0136
23692 3 25.3486 55.8405 52.0294
23694 3 28.5071 55.9435 52.0252
24059 3 30.2494 57.4799 53.6443
24061 3 33.3282 57.4227 53.6025
24063 3 36.4799 57.4565 53.6314
23702 3 41.1653 55.885 51.9873
217616 3 9.49063 43.1082 55.2463
217981 3 11.0962 44.8115 56.8937
217618 3 12.7121 43.1359 55.2996
7047 3 17.4411 44.8161 56.8965
6684 3 19.0241 43.1107 55.3289
7049 3 20.6576 44.7412 56.91
7051 3 23.8256 44.6714 56.8237
7055 3 30.1984 44.7456 56.8032
6694 3 34.8522 43.1362 55.1631
7061 3 39.7103 44.7712 56.8588
6698 3 41.396 43.1011 55.2499
217642 3 9.46507 46.4657 55.2774
217646 3 15.8264 46.4289 55.2412
6710 3 19.0942 46.4089 55.2344
6714 3 25.3563 46.4174 55.1979
6716 3 28.579 46.4253 55.2708
6720 3 34.823 46.3395 55.2434
6722 3 38.0651 46.3394 55.247
7087 3 39.7002 47.9802 56.9089
235269 3 7.87006 51.089 56.7857
235271 3 11.0848 51.1235 56.833
235297 3 11.1287 54.3993 56.8981
235273 3 14.2243 51.0534 56.9342
24337 3 17.4652 51.1144 56.8854
234936 3 15.8327 52.7719 55.2415
24339 3 20.6239 51.0896 56.8175
24000 3 18.9887 52.7158 55.1834
24002 3 22.3212 52.7251 55.2304
24006 3 28.4613 52.738 55.2062
24371 3 30.1614 54.3425 56.7919
24008 3 31.7743 52.6905 55.2133
24351 3 39.6184 51.2 56.8424
235321 3 7.95112 57.5306 56.8936
235325 3 14.2219 57.3939 56.7897
24026 3 18.9524 55.9381 55.28
24393 3 23.806 57.4429 56.8191
24032 3 28.4932 55.9588 55.297
24040 3 41.2579 55.9054 55.2183
24403 3 39.65 57.5456 56.7677
54414 3 50.9374 8.22306 7.48108
1372 3 47.7899 11.4666 7.49236
1400 3 50.8955 14.556 7.4836
1474 3 44.5573 24.1346 7.4718
1478 3 50.9403 24.0979 7.56455
1500 3 44.4847 27.2831 7.44258
1502 3 47.6808 27.2824 7.53029
1504 3 50.8791 27.3482 7.62239
1526 3 44.4874 30.3413 7.51546
1552 3 44.5177 33.6614 7.4902
1578 3 44.5539 36.8616 7.46352
1582 3 50.8889 36.7447 7.48741
1584 3 53.9636 36.7785 7.47381
1606 3 47.6816 39.9594 7.49865
1608 3 50.8285 39.9292 7.47229
55085 3 42.8588 6.5576 12.1676
54748 3 44.6404 8.0967 10.6339
54752 3 50.8391 8.0828 10.6194
54755 3 55.6306 6.55012 9.00605
54754 3 54.04 8.11293 10.6442
2045 3 42.9063 9.75646 12.1965
1709 3 46.2384 9.79893 9.07064
2047 3 46.2192 9.78633 12.2647
1708 3 44.5133 11.4574 10.6442
1715 3 55.6225 9.83057 8.97413
1739 3 52.4786 12.9249 9.03408
2051 3 52.437 9.74861 12.241
2053 3 55.7158 9.73103 12.2295
1761 3 45.9756 16.0842 9.02446
2099 3 46.028 16.1777 12.3072
1736 3 47.73 14.5546 10.6644
1740 3 54.0889 14.595 10.6643
2123 3 42.9028 19.2803 12.3887
1787 3 46.085 19.2801 9.05816
1786 3 44.5331 20.9172 10.6563
1762 3 47.7723 17.7317 10.6032
1791 3 52.5245 19.1949 9.05478
1812 3 44.5708 24.087 10.714
1815 3 49.237 22.5183 9.12379
2153 3 49.2766 22.5139 12.1898
1819 3 55.6372 22.3955 9.09888
2155 3 52.4755 22.4958 12.2392
2157 3 55.7655 22.4255 12.2535
1837 3 42.8729 25.6778 9.06573
2201 3 42.9535 28.8854 12.2727
2203 3 46.0529 28.8815 12.1592
2207 3 52.5661 28.904 12.1741
2209 3 55.7171 28.7965 12.1873
1891 3 46.1862 31.9533 9.15281
1890 3 44.5096 33.6508 10.6881
2231 3 49.2779 32.0867 12.1547
1868 3 50.8841 30.3879 10.5878
1895 3 52.5091 32.0551 9.04554
2253 3 42.9186 35.2724 12.3165
1918 3 47.7081 36.8235 10.6611
1923 3 55.6694 35.1553 9.09116
2259 3 52.4406 35.3249 12.2591
2261 3 55.6593 35.2445 12.2746
1941 3 42.8921 38.4843 9.00567
2305 3 42.8927 41.6744 12.3127
2281 3 46.018 38.4237 12.2482
2307 3 46.0872 41.6252 12.282
1946 3 50.788 39.904 10.6219
2309 3 49.2198 41.6176 12.2328
1975 3 55.7979 41.5521 9.00405
1948 3 54.06 39.9244 10.6276
2311 3 52.3794 41.5705 12.1986
55425 3 46.1892 6.60891 15.4537
55424 3 44.4117 8.13091 17.0172
55090 3 50.8405 8.05742 13.8384
55430 3 54.1097 8.15727 17.1412
2385 3 46.1456 9.74486 15.3765
2384 3 44.4629 11.3652 17.0134
2050 3 50.7536 11.3957 13.8589
2386 3 47.7606 11.3694 16.9688
2389 3 52.4722 9.74677 15.5014
2391 3 55.656 9.78073 15.49
2415 3 52.4793 13.0099 15.4699
2052 3 54.057 11.4059 13.8142
2435 3 43.0004 16.1377 15.4485
2411 3 46.0842 13.0636 15.374
2439 3 49.2699 16.1587 15.3768
2441 3 52.4369 16.1719 15.4592
2443 3 55.6983 16.1304 15.428
2416 3 54.1168 14.5635 17.1706
2128 3 50.843 20.8721 13.8547
2438 3 47.5869 17.7426 17.0085
2104 3 54.097 17.7725 13.7714
2487 3 42.97 22.4308 15.4235
2489 3 46.0231 22.4455 15.4496
2152 3 47.6223 24.055 13.8007
2492 3 50.9178 23.998 17.088
2156 3 54.1289 24.1608 13.7262
2494 3 54.0757 24.0209 17.0512
2541 3 46.0669 28.8185 15.4267
2514 3 44.4803 27.2692 17.1763
2517 3 49.2709 25.6495 15.4741
2178 3 47.6916 27.2334 13.7687
2543 3 49.2765 28.8401 15.4675
2180 3 50.8761 27.2743 13.7382
2518 3 50.926 27.2714 17.187
2519 3 52.4649 25.6402 15.4184
2521 3 55.7853 25.6925 15.4487
2545 3 52.5243 28.8985 15.4363
2547 3 55.6598 28.8572 15.4414
2565 3 42.9589 32.0789 15.4009
2567 3 46.0736 32.1294 15.4392
2540 3 44.5214 30.421 17.1066
2204 3 47.7319 30.4733 13.8262
2230 3 47.7179 33.7338 13.8132
2544 3 50.8069 30.5036 17.0781
2571 3 52.4718 32.0944 15.4106
2573 3 55.6473 32.0849 15.4774
2591 3 43.0158 35.2367 15.4386
2256 3 47.7096 36.811 13.914
2617 3 42.925 38.3898 15.378
2643 3 42.899 41.6445 15.4532
2618 3 44.5315 39.994 17.0599
2282 3 47.6874 39.9371 13.8624
2647 3 49.2867 41.6403 15.4875
2620 3 47.6541 39.9005 17.0716
2623 3 52.4171 38.3393 15.4701
2286 3 54.0331 39.9655 13.815
2651 3 55.6416 41.5154 15.4792
55762 3 44.4921 8.10309 20.2445
55765 3 49.3196 6.61655 18.669
2723 3 46.1453 9.76434 18.6696
2749 3 46.0816 12.9524 18.6835
2725 3 49.3561 9.75142 18.7228
2751 3 49.3347 12.9576 18.64
2728 3 54.07 11.3503 20.1591
2752 3 51.0015 14.481 20.2252
2799 3 42.942 19.3258 18.5729
2774 3 44.4967 17.6657 20.1825
2776 3 47.6266 17.7074 20.1416
2807 3 55.678 19.3149 18.6082
2827 3 46.0041 22.4192 18.667
2829 3 49.2442 22.3804 18.6637
2830 3 50.8558 24.1257 20.2665
2853 3 46.1274 25.6093 18.6561
2859 3 55.7056 25.6501 18.6255
2885 3 55.6184 28.9157 18.566
2903 3 42.8794 32.0956 18.6182
2905 3 46.2114 32.105 18.6502
2878 3 44.4928 30.4896 20.2647
2882 3 50.8843 30.3646 20.1895
2909 3 52.4401 32.1729 18.6227
2911 3 55.6196 32.1646 18.5439
2910 3 54.0361 33.7336 20.3274
2931 3 46.1255 35.1974 18.5465
2930 3 44.4216 36.8234 20.134
2933 3 49.3067 35.2005 18.6307
2936 3 54.0384 36.8099 20.1526
2958 3 47.7541 39.9293 20.1856
2960 3 50.8903 39.9783 20.126
2989 3 55.6614 41.5213 18.5404
2962 3 53.9858 39.9562 20.1613
56439 3 46.0914 6.67748 24.9499
56103 3 49.2422 6.64142 21.7833
56441 3 49.3215 6.62588 24.9619
56106 3 53.9774 8.14244 23.3301
3085 3 42.9352 12.9545 21.7565
3397 3 42.9948 9.78608 25.0172
3423 3 42.9744 13.0268 25.1469
3061 3 46.1888 9.77671 21.8287
3399 3 46.1129 9.80081 24.9703
3064 3 50.8218 11.3153 23.4049
3405 3 55.5786 9.78939 25.0126
3113 3 46.0981 16.0919 21.8324
3115 3 49.3574 16.1165 21.8429
3088 3 47.7059 14.4587 23.4432
3455 3 52.4184 16.1813 24.9565
3092 3 54.0554 14.5317 23.3351
3112 3 44.5028 17.6737 23.4836
3141 3 49.2819 19.2473 21.8079
3140 3 47.6072 20.8561 23.432
3142 3 50.8189 20.8862 23.427
3143 3 52.5015 19.2074 21.7564
3145 3 55.6928 19.231 21.7549
3483 3 55.7474 19.2629 25.0031
3144 3 54.1071 20.9152 23.3935
3163 3 42.9516 22.4565 21.8111
3501 3 43.0458 22.4085 25.0545
3166 3 47.6548 23.961 23.4227
3168 3 50.7615 24.0801 23.3974
3507 3 52.4228 22.5161 25.0352
3170 3 54.0936 24.1001 23.4589
3215 3 42.8555 28.8859 21.9498
3527 3 42.8986 25.5748 24.9811
3191 3 46.0301 25.6048 21.803
3217 3 46.1002 28.9268 21.8702
3192 3 47.6631 27.1863 23.436
3194 3 50.8402 27.2436 23.2777
3557 3 49.2955 28.9081 24.9547
3197 3 55.6729 25.6312 21.7611
3223 3 55.6407 28.8364 21.7879
3196 3 53.9999 27.2531 23.4039
3561 3 55.6608 28.8712 25.009
3581 3 46.0751 32.0417 24.9175
3245 3 49.2673 32.0609 21.7867
3583 3 49.3433 32.0325 24.9117
3222 3 54.0319 30.5212 23.3267
3585 3 52.4139 32.0744 24.9365
3267 3 42.7813 35.2098 21.8338
3605 3 42.7766 35.2146 24.9788
3269 3 46.0725 35.2292 21.8135
3270 3 47.705 36.7959 23.4301
3613 3 55.6158 35.3011 24.9509
3319 3 42.9024 41.4827 21.7502
3294 3 44.4337 39.8958 23.5001
3659 3 46.1634 41.6027 24.9938
3298 3 50.8026 40.0291 23.4541
3300 3 54.006 39.9855 23.3719
3665 3 55.5818 41.731 24.9428
56775 3 42.8951 6.51555 28.181
56442 3 50.9017 8.28121 26.6082
56783 3 55.6396 6.63247 28.1377
3737 3 46.1783 9.76886 28.2033
3400 3 47.7767 11.3668 26.5839
3787 3 42.8981 16.1511 28.1464
3426 3 47.6984 14.617 26.604
3428 3 50.8527 14.4516 26.5446
3793 3 52.4971 16.1741 28.1369
3430 3 54.0287 14.4366 26.5763
3815 3 46.1936 19.2617 28.1618
3480 3 50.762 20.8736 26.616
3821 3 55.6347 19.2253 28.1538
3482 3 54.0822 20.9028 26.5752
3841 3 46.2046 22.4492 28.1736
3845 3 52.4338 22.4757 28.2652
3865 3 42.8814 25.619 28.2941
3867 3 46.1332 25.6118 28.219
3528 3 44.4934 27.2678 26.5694
3893 3 46.1382 28.7985 28.312
3532 3 50.7677 27.2331 26.6749
3871 3 52.4808 25.6171 28.191
3554 3 44.4123 30.445 26.5902
3580 3 44.4227 33.634 26.5975
3556 3 47.6695 30.4521 26.6013
3921 3 49.2877 32.0631 28.2346
3923 3 52.4349 32.0677 28.2352
3945 3 46.1596 35.2486 28.1956
3582 3 47.7458 33.7428 26.5034
3949 3 52.4113 35.2546 28.2953
3612 3 53.9967 36.8595 26.6145
3995 3 42.8729 41.5175 28.2389
3997 3 46.0547 41.4279 28.2299
3973 3 49.2868 38.3286 28.226
4001 3 52.4993 41.5615 28.1481
56776 3 44.5178 8.12126 29.7754
57117 3 49.2412 6.55706 31.2751
57118 3 50.8078 8.15863 32.9499
57120 3 54.0403 8.18638 32.9442
4073 3 42.9069 9.71094 31.4357
4099 3 42.8572 12.94 31.3618
3736 3 44.4927 11.3701 29.731
4074 3 44.5527 11.353 33.0002
4077 3 49.2689 9.73643 31.2069
4076 3 47.7092 11.3162 32.9582
4078 3 50.9254 11.3344 32.962
4081 3 55.5963 9.75121 31.3165
3742 3 54.0345 11.4227 29.6989
3762 3 44.5245 14.6283 29.8206
3764 3 47.6929 14.5752 29.7622
4129 3 49.3213 16.0982 31.5297
3766 3 50.8985 14.5229 29.7986
4133 3 55.5744 16.1279 31.4178
3814 3 44.5279 20.7956 29.8483
4126 3 44.5585 17.6722 32.9408
4155 3 49.2737 19.3151 31.3825
3792 3 50.882 17.6945 29.8142
4156 3 50.8077 20.9808 33.0495
3820 3 54.0302 20.7831 29.8539
3840 3 44.5008 24.0064 29.8657
3844 3 50.7568 24.0932 29.8528
4185 3 55.5748 22.4674 31.3951
4184 3 53.9721 24.0518 33.033
4205 3 46.1095 25.6668 31.4271
4233 3 49.1966 28.8449 31.3385
4211 3 55.5698 25.7223 31.3644
4235 3 52.4464 28.8241 31.3603
4237 3 55.5895 28.8628 31.4558
3892 3 44.4008 30.4116 29.8254
4257 3 46.1345 32.0474 31.3574
4230 3 44.4316 30.4091 32.957
4260 3 50.8713 33.6388 32.8443
4281 3 42.9075 35.2283 31.3884
3944 3 44.4381 36.8038 29.7238
4286 3 50.9315 36.8924 32.8595
4289 3 55.5013 35.1883 31.3726
4333 3 42.9421 41.5285 31.3265
4309 3 46.0928 38.3736 31.3499
4337 3 49.2859 41.5082 31.3569
4310 3 47.644 39.9704 32.9668
4339 3 52.4692 41.5466 31.3375
57454 3 47.609 8.1737 36.0421
57457 3 52.457 6.64996 34.603
57797 3 55.6434 6.66507 37.7216
4412 3 44.53 11.3225 36.0878
4777 3 46.0995 12.8724 37.7626
4441 3 49.3441 13.0074 34.5109
4414 3 47.73 11.3292 36.0995
4445 3 55.6251 12.9934 34.6237
4757 3 55.6765 9.81015 37.7425
4418 3 53.9741 11.3943 36.1487
4801 3 42.8606 16.0535 37.7966
4803 3 46.167 16.1815 37.7535
4805 3 49.3254 16.2367 37.7553
4442 3 50.9826 14.5046 36.2237
4809 3 55.6366 16.1326 37.7426
4464 3 44.4824 17.7049 36.1018
4494 3 50.7831 20.9385 36.1154
4497 3 55.6261 19.3331 34.6113
4833 3 52.5367 19.2872 37.6955
4515 3 42.9218 22.3465 34.5234
4517 3 46.1119 22.4722 34.5355
4859 3 52.5077 22.4521 37.7032
4541 3 42.9552 25.7244 34.5307
4569 3 46.1 28.7675 34.4721
4881 3 46.1652 25.5201 37.7389
4545 3 49.2269 25.5954 34.5133
4571 3 49.3017 28.8792 34.4861
4909 3 49.3547 28.8427 37.7815
4546 3 50.9047 27.1596 36.1291
4549 3 55.6829 25.7394 34.5201
4573 3 52.4382 28.9347 34.4865
4911 3 52.4365 28.8882 37.8118
4548 3 54.0479 27.239 36.1587
4933 3 46.0461 32.0488 37.7457
4597 3 49.3253 32.0074 34.5194
4570 3 47.6762 30.4112 36.1698
4596 3 47.7404 33.678 36.2441
4574 3 54.0861 30.4578 36.1827
4939 3 55.6717 32.1039 37.7909
4600 3 53.9735 33.6437 36.2073
4957 3 42.9196 35.2086 37.7656
4621 3 46.1054 35.2343 34.4517
4620 3 44.5736 36.8063 36.2051
4623 3 49.3087 35.3055 34.5627
4671 3 42.8383 41.5524 34.5203
4983 3 42.8248 38.4136 37.7276
4646 3 44.4938 40.0014 36.1211
5011 3 45.9887 41.6514 37.781
4675 3 49.3092 41.5417 34.5237
4987 3 49.3323 38.3228 37.7987
4648 3 47.6124 39.938 36.1293
4677 3 52.4191 41.5194 34.5096
4679 3 55.6601 41.5596 34.4862
4989 3 52.4521 38.3385 37.7827
4991 3 55.685 38.3143 37.7768
5015 3 52.4093 41.51 37.8161
5017 3 55.6657 41.5499 37.7972
58129 3 46.1103 6.6047 41.0017
57790 3 44.4321 8.17685 39.3708
57794 3 50.911 8.14518 39.2759
58133 3 52.4689 6.58018 41.0278
5115 3 46.1929 12.9025 40.966
5091 3 49.2755 9.6917 40.9083
4754 3 50.9187 11.3348 39.2702
5095 3 55.5817 9.77263 40.9
5121 3 55.7475 12.89 40.8689
4776 3 44.5129 14.4883 39.3735
5145 3 52.4778 16.1451 40.8198
4802 3 44.5041 17.7789 39.3944
4828 3 44.4607 20.9024 39.3229
5169 3 49.2973 19.232 40.889
4830 3 47.7428 20.8973 39.2829
5193 3 46.0564 22.5203 40.9068
4858 3 50.879 24.0155 39.3339
4860 3 54.1582 23.9992 39.3347
4880 3 44.4553 27.231 39.3217
5221 3 49.2154 25.6501 40.887
5247 3 49.2802 28.9023 40.9486
4886 3 54.1361 27.2307 39.358
4906 3 44.4539 30.3825 39.3019
4908 3 47.6668 30.5009 39.3813
4936 3 50.9534 33.6072 39.3111
5297 3 46.1177 35.2201 40.915
5299 3 49.2866 35.2709 40.9303
4964 3 54.0928 36.6759 39.4552
5347 3 42.891 41.6284 40.934
4984 3 44.5011 39.8969 39.3891
4986 3 47.649 39.9314 39.378
5351 3 49.3347 41.5832 40.9674
5353 3 52.4408 41.5495 40.9492
5355 3 55.606 41.5811 40.9813
54418 3 57.2791 8.16848 7.46577
1404 3 57.2354 14.5588 7.43794
1430 3 57.2069 17.7669 7.41119
1482 3 57.2243 24.0942 7.45907
1534 3 57.1736 30.4434 7.43508
1586 3 57.3162 36.8324 7.50175
1742 3 57.1876 14.4822 10.5585
1768 3 57.1673 17.7138 10.6004
1872 3 57.2792 30.4309 10.6395
1924 3 57.2752 36.9183 10.6868
2054 3 57.26 11.4031 13.847
2080 3 57.3282 14.4926 13.9424
2210 3 57.3458 30.5229 13.8406
2288 3 57.2363 39.9469 13.7864
55770 3 57.1729 8.21561 20.1266
2756 3 57.2025 14.4086 20.1604
2808 3 57.3291 20.9761 20.1536
2860 3 57.3075 27.3165 20.1657
2886 3 57.2538 30.5293 20.1989
2964 3 57.2271 39.9459 20.1574
3068 3 57.2596 11.3743 23.368
3094 3 57.2121 14.498 23.4214
3302 3 57.2573 39.9888 23.4069
3406 3 57.288 11.3545 26.6349
3588 3 57.1695 33.6215 26.5441
3640 3 57.146 39.9773 26.5731
56784 3 57.2902 8.18509 29.7425
4082 3 57.1978 11.3823 32.9717
3770 3 57.1341 14.4953 29.765
4108 3 57.2111 14.6144 33.0313
3900 3 57.1479 30.4895 29.7824
4264 3 57.2964 33.6076 32.9656
3952 3 57.1976 36.8104 29.8196
4524 3 57.2789 24.0448 36.1199
4654 3 57.3664 39.9247 36.0908
57798 3 57.3357 8.14625 39.3871
4810 3 57.2653 17.7286 39.3779
4836 3 57.1432 20.8928 39.3353
4914 3 57.206 30.3913 39.3959
4992 3 57.338 39.9551 39.3971
58465 3 42.868 6.56485 44.0162
58466 3 44.5077 8.16402 45.6471
58472 3 54.0347 8.12311 45.7234
5088 3 44.5141 11.2427 42.5597
5429 3 49.3221 9.68268 44.0867
5455 3 49.2613 12.8766 44.0796
5430 3 50.9219 11.2115 45.7604
5433 3 55.6662 9.71404 44.0382
5114 3 44.481 14.5317 42.5667
5479 3 46.1569 16.148 44.0874
5452 3 44.46 14.4934 45.7445
5118 3 50.8243 14.51 42.4221
5454 3 47.6582 14.5188 45.7733
5120 3 54.1246 14.5108 42.5124
5483 3 52.3873 16.067 44.1435
5458 3 54.1842 14.4063 45.661
5140 3 44.4722 17.7362 42.4789
5505 3 46.1485 19.3609 44.126
5478 3 44.4108 17.7038 45.7665
5504 3 44.4076 20.9241 45.7592
5170 3 50.9228 20.9152 42.4958
5508 3 50.7911 20.8496 45.6307
5146 3 54.0508 17.7616 42.4961
5511 3 55.6962 19.3521 44.1703
5484 3 54.0667 17.645 45.6961
5192 3 44.4653 24.1071 42.5901
5532 3 47.606 24.0681 45.5972
5537 3 55.6503 22.4349 44.1002
5556 3 44.4794 27.182 45.5925
5585 3 49.1502 28.8339 44.1144
5222 3 50.8809 27.2465 42.5032
5561 3 52.4916 25.5785 44.1319
5224 3 54.1553 27.208 42.5
5607 3 42.9141 32.0302 44.0332
5244 3 44.5282 30.3898 42.491
5586 3 50.9058 30.4766 45.6891
5250 3 54.0349 30.4469 42.4215
5613 3 52.4777 32.15 44.0863
5615 3 55.6081 32.0741 44.0708
5633 3 42.9273 35.2157 44.0574
5635 3 46.1074 35.2171 44.0909
5634 3 44.5293 36.8566 45.7428
5300 3 50.9432 36.8606 42.6399
5659 3 42.804 38.3936 44.0373
5322 3 44.5484 40.0072 42.5884
5324 3 47.7526 39.957 42.6038
5667 3 55.7131 38.3497 44.1726
5328 3 54.0274 39.9146 42.6127
5691 3 52.4427 41.5776 44.1818
58807 3 49.2972 6.63543 47.3738
5763 3 42.9057 9.866 47.3005
5765 3 46.1349 9.76279 47.3027
5771 3 55.6563 9.72323 47.4126
5795 3 52.4255 13.013 47.3069
5790 3 44.5424 14.52 48.8029
5792 3 47.724 14.5231 48.8913
5823 3 55.6501 16.0339 47.3646
5842 3 44.4813 20.8695 48.9296
5820 3 50.8141 17.6282 48.8891
5844 3 47.6427 20.8637 48.9878
5846 3 50.7132 20.8452 48.9011
5848 3 54.0065 20.8263 48.8444
5868 3 44.5358 24.0729 48.8446
5872 3 50.7489 24.0145 48.8237
5873 3 52.4402 22.4317 47.1958
5893 3 42.7812 25.6175 47.2455
5919 3 42.8985 28.8008 47.2487
5921 3 46.0916 28.9191 47.1417
5897 3 49.2434 25.7175 47.1865
5896 3 47.5589 27.3075 48.8824
5898 3 50.9311 27.3275 48.819
5901 3 55.5864 25.6766 47.2507
5949 3 49.256 32.0146 47.3246
5950 3 50.9161 33.5916 48.9026
5926 3 54.0603 30.3526 48.7998
5974 3 47.6362 36.8081 48.9001
5977 3 52.4409 35.2759 47.2507
6023 3 42.8963 41.5234 47.3802
6025 3 46.1711 41.5285 47.2549
6001 3 49.3117 38.3834 47.2466
6003 3 52.4569 38.376 47.2799
6005 3 55.6496 38.3422 47.3154
6029 3 52.5226 41.5978 47.359
59479 3 42.9238 6.583 53.6044
59143 3 46.0992 6.58969 50.4028
59481 3 46.1412 6.52903 53.6097
59145 3 49.2913 6.54027 50.4674
59483 3 49.3157 6.48928 53.6044
59146 3 50.9195 8.14429 52.0755
59487 3 55.7473 6.56421 53.5221
6101 3 42.9358 9.85515 50.4917
6465 3 43.0533 12.9742 53.5909
6129 3 46.0443 12.8884 50.5166
6105 3 49.2698 9.73488 50.4172
6469 3 49.3213 12.9347 53.6751
6133 3 52.4553 12.9552 50.4763
6135 3 55.7001 12.8763 50.4384
6445 3 52.5341 9.76241 53.6488
6447 3 55.6904 9.74186 53.5333
6471 3 52.4873 13.0212 53.6756
6473 3 55.6498 12.8651 53.6702
6153 3 42.9671 16.1735 50.4421
6491 3 42.9565 16.1229 53.6988
6130 3 47.677 14.5646 52.0292
6495 3 49.3014 16.1662 53.6256
6499 3 55.6098 16.1006 53.7694
6519 3 46.1432 19.263 53.6091
6180 3 44.5142 20.8865 52.0458
6184 3 50.7038 20.7996 52.0616
6187 3 55.6203 19.2495 50.4292
6523 3 52.4019 19.2082 53.631
6160 3 54.0533 17.5975 52.0501
6186 3 54.035 20.8452 52.1426
6206 3 44.5014 23.9821 52.0487
6547 3 49.0908 22.4322 53.6763
6210 3 50.7959 24.0327 52.1176
6551 3 55.6687 22.4592 53.7411
6231 3 42.911 25.7649 50.4582
6235 3 49.1504 25.6534 50.4826
6599 3 49.2408 28.8995 53.6469
6236 3 50.8481 27.2638 52.0568
6237 3 52.472 25.6277 50.4238
6575 3 52.521 25.6723 53.711
6238 3 54.1088 27.2776 52.0214
6283 3 42.9801 32.0448 50.5075
6260 3 47.5864 30.5298 52.0484
6262 3 50.8873 30.5094 52.0245
6629 3 55.5893 31.9763 53.5627
6647 3 42.8614 35.1669 53.7227
6310 3 44.493 36.775 52.0201
6313 3 49.2673 35.2135 50.5039
6651 3 49.3422 35.2363 53.5647
6316 3 53.9945 36.8366 51.9523
6363 3 46.0526 41.5396 50.4679
6675 3 46.0427 38.428 53.6641
6365 3 49.2978 41.5993 50.4439
6338 3 47.733 39.9183 52.0516
6369 3 55.6784 41.6995 50.4491
6342 3 53.9911 40.0325 52.0016
6705 3 52.3977 41.6611 53.6198
59482 3 47.7718 8.22068 55.2654
59823 3 52.4327 6.59366 56.8573
6803 3 42.9865 12.9111 56.804
6779 3 46.0298 9.84302 56.8418
6807 3 49.2948 13.0071 56.867
6785 3 55.6345 9.77713 56.7864
6831 3 46.0414 16.1334 56.8347
6468 3 47.6323 14.5608 55.2209
6855 3 42.826 19.2772 56.8059
6859 3 49.3086 19.3382 56.9261
6496 3 50.8384 17.7249 55.2897
6881 3 42.8807 22.5649 56.7528
6883 3 46.0573 22.4777 56.7903
6885 3 49.2468 22.4367 56.8893
6887 3 52.4833 22.4013 56.8856
6570 3 44.4696 27.2843 55.2001
6935 3 46.1005 28.9034 56.7616
6572 3 47.6631 27.1755 55.2006
6574 3 50.8258 27.2741 55.2991
6913 3 52.4842 25.6046 56.8485
6915 3 55.6108 25.6542 56.8222
6959 3 42.8979 32.0919 56.713
6963 3 49.1972 31.9692 56.8233
6624 3 47.6256 33.5718 55.1722
6967 3 55.6766 31.8679 56.818
6650 3 47.7033 36.7733 55.1998
6991 3 52.4222 35.2832 56.7797
6993 3 55.6347 35.308 56.7414
7011 3 42.9507 38.3425 56.7553
7013 3 46.102 38.3842 56.8767
7039 3 46.1372 41.6065 56.785
7015 3 49.2338 38.4464 56.9021
6678 3 50.8442 40.0188 55.2346
7041 3 49.2508 41.6782 56.8791
7019 3 55.6705 38.4382 56.7353
6680 3 53.9934 40.0613 55.2391
5148 3 57.3197 17.6344 42.5133
5486 3 57.3493 17.5825 45.7045
5564 3 57.1834 27.2565 45.6154
5616 3 57.2122 33.7637 45.7013
5304 3 57.2526 36.6528 42.5391
58812 3 57.352 8.06808 48.9079
5824 3 57.3381 17.6615 48.8897
5876 3 57.2444 23.9362 48.7629
5954 3 57.2079 33.7656 48.904
6006 3 57.3082 40.0259 48.8466
6136 3 57.2832 14.5297 51.9918
6188 3 57.2924 20.803 52.0865
6214 3 57.2655 24.0852 52.0775
6240 3 57.273 27.2598 52.0843
6266 3 57.2798 30.3415 52.033
6318 3 57.3165 36.7979 52.0094
6344 3 57.2721 39.997 52.0828
59488 3 57.2772 8.08803 55.2749
6474 3 57.274 14.4809 55.3572
6552 3 57.2895 24.0692 55.3022
6630 3 57.2591 33.6569 55.1641
1630 3 44.5357 43.0662 7.49956
1632 3 47.7305 43.0814 7.49634
1636 3 54.0738 43.1939 7.46769
1656 3 44.5093 46.3324 7.48786
1662 3 54.0255 46.2862 7.39137
1688 3 54.0302 49.454 7.52538
18948 3 47.5607 52.7195 7.50227
18974 3 47.5515 55.9302 7.49294
18978 3 54.0528 55.8063 7.49042
1993 3 42.8005 44.7248 9.07627
1995 3 46.1511 44.8023 9.12399
2019 3 42.9903 47.9396 9.06607
2359 3 46.1378 47.9231 12.1581
2023 3 49.1591 47.909 9.10008
2363 3 52.4865 47.8995 12.2899
2000 3 54.0004 46.2493 10.6154
19283 3 42.9336 51.1428 8.96415
19284 3 44.5369 52.7241 10.5955
19649 3 46.1156 54.3068 12.3154
19287 3 49.2342 51.1179 9.10486
19313 3 49.2937 54.2662 9.11441
19289 3 52.4205 51.1866 9.15311
19653 3 52.388 54.3512 12.265
19675 3 46.0652 57.481 12.2818
19312 3 47.7077 55.9258 10.6748
19341 3 52.5696 57.4913 9.16253
2675 3 52.4155 44.7849 15.401
2312 3 54.0367 43.1604 13.816
2332 3 44.5306 46.2618 13.841
2670 3 44.5189 46.2922 16.9321
2696 3 44.5368 49.5282 16.9931
2362 3 50.7442 49.4815 13.8237
2674 3 50.83 46.4131 16.9878
19985 3 42.9501 54.2772 15.3611
19961 3 46.1087 51.1559 15.3402
19963 3 49.2765 51.186 15.4685
19991 3 52.3954 54.3256 15.508
19628 3 54.0481 52.7154 13.8254
19986 3 44.6118 55.9445 16.95
20017 3 52.4171 57.4995 15.4504
20019 3 55.609 57.4642 15.5299
3007 3 42.8783 44.7632 18.6276
2982 3 44.5634 43.165 20.1615
2984 3 47.7068 43.215 20.2585
2986 3 50.851 43.1953 20.1676
3015 3 55.6645 44.7686 18.6278
2988 3 53.9662 43.1769 20.1466
3033 3 42.9261 47.9274 18.7052
3012 3 50.8795 46.336 20.1852
3036 3 47.7047 49.5338 20.0907
3014 3 53.9903 46.3719 20.2057
3040 3 53.9866 49.5278 20.1864
20323 3 43.0093 54.3149 18.6405
20300 3 47.6865 52.7469 20.1437
20304 3 53.9943 52.7465 20.1171
20349 3 42.8738 57.5219 18.572
20326 3 47.7002 56.004 20.0837
20328 3 50.8844 55.9163 20.1962
20355 3 52.4853 57.4748 18.6029
3320 3 44.4905 43.1856 23.3662
3687 3 49.2867 44.7232 24.9568
3689 3 52.4147 44.7222 24.9348
3371 3 42.914 47.9244 21.8366
3373 3 46.0517 47.9751 21.8094
3375 3 49.3361 47.9972 21.8323
3352 3 54.0769 46.417 23.2975
3715 3 52.4022 47.9772 24.9379
20635 3 42.9851 51.1033 21.7892
20661 3 43.0288 54.3863 21.7411
20973 3 42.9401 51.0783 24.9901
20636 3 44.5634 52.8331 23.4756
20640 3 50.8148 52.7339 23.4469
20641 3 52.3793 51.1602 21.7638
20669 3 55.5611 54.309 21.8125
20981 3 55.6123 51.1114 25.0027
21005 3 52.4646 54.338 24.971
21007 3 55.6562 54.2916 25.007
20691 3 49.2645 57.5262 21.8375
21029 3 49.2454 57.5553 24.9452
20668 3 54.0675 56.0358 23.3872
21031 3 52.3609 57.6205 25.0095
4029 3 55.6817 44.7689 28.0968
4047 3 42.9299 48.0417 28.1807
3686 3 47.6292 46.3505 26.5797
4051 3 49.2485 48.0015 28.1471
3712 3 47.6712 49.5822 26.5217
3690 3 54.0177 46.4271 26.57
21311 3 42.9197 51.2168 28.1817
20976 3 47.704 52.82 26.5535
21317 3 52.3624 51.2101 28.1041
21319 3 55.7734 51.1191 28.1002
21343 3 52.4234 54.3459 28.1481
21345 3 55.6899 54.2573 28.1245
21000 3 44.5143 55.958 26.5746
21367 3 49.2885 57.5377 28.2211
4359 3 42.9296 44.7566 31.3361
3998 3 47.5867 43.2066 29.8047
4000 3 50.8104 43.1847 29.7266
4365 3 52.4243 44.7466 31.3545
4387 3 45.9339 48.0204 31.3772
4024 3 47.6047 46.313 29.775
4026 3 50.842 46.3638 29.6784
4389 3 49.174 47.9522 31.4649
4050 3 47.6146 49.631 29.7519
4391 3 52.4184 47.9933 31.3591
4028 3 54.0679 46.3968 29.7064
4054 3 54.006 49.562 29.674
4366 3 54.1075 46.3665 32.8924
21650 3 44.4949 52.8483 32.9127
21314 3 47.5864 52.7552 29.7137
21679 3 49.1729 54.4012 31.3389
21654 3 50.8279 52.7475 32.9015
21657 3 55.6909 51.1112 31.3424
21656 3 54.0162 52.8037 32.8843
21338 3 44.5085 55.9671 29.8147
21705 3 49.1611 57.5751 31.3911
21680 3 50.8156 56.0122 32.9806
21707 3 52.4401 57.5785 31.3069
21344 3 54.1017 56.0109 29.7205
5035 3 42.7898 44.7318 37.7395
4699 3 46.0469 44.8063 34.5303
4701 3 49.21 44.832 34.4642
4674 3 47.6397 43.1764 36.1379
4676 3 50.8252 43.2313 36.2366
4703 3 52.4017 44.7758 34.4963
4705 3 55.6845 44.735 34.5106
4678 3 54.0356 43.2069 36.2171
4725 3 46.0645 47.9873 34.5117
4698 3 44.3379 46.4407 36.1042
4702 3 50.7845 46.4122 36.2049
4726 3 47.6138 49.5853 36.1567
4729 3 52.3903 48.0027 34.5461
4704 3 54.073 46.3781 36.2098
4730 3 54.0297 49.5522 36.2179
21987 3 42.912 51.1558 34.4961
21988 3 44.497 52.7685 36.1386
21991 3 49.1735 51.186 34.5436
22017 3 49.1247 54.3951 34.5873
22329 3 49.2198 51.2183 37.7552
21993 3 52.388 51.1632 34.6104
21995 3 55.642 51.1754 34.4945
22019 3 52.4258 54.4402 34.5607
21994 3 54.0038 52.8113 36.2445
22039 3 42.8863 57.4847 34.4959
22041 3 46.1051 57.4949 34.534
22383 3 52.4427 57.5244 37.7678
22020 3 54.0844 55.9314 36.2097
5012 3 47.7057 43.23 39.3303
5379 3 52.4669 44.7989 40.95
5381 3 55.5759 44.7878 41.0437
5036 3 44.3557 46.3601 39.4081
5401 3 46.0795 48.01 40.941
5062 3 44.438 49.5754 39.2505
5038 3 47.6322 46.336 39.3461
5403 3 49.2274 47.966 40.9392
5066 3 50.8104 49.5798 39.3745
5407 3 55.6376 47.9074 40.9691
5068 3 54.0732 49.5779 39.3391
22663 3 42.8349 51.2239 40.8395
22665 3 46.1522 51.2161 40.8551
22669 3 52.3973 51.249 40.8714
22695 3 52.4468 54.3508 40.8372
22352 3 44.4412 55.8858 39.3517
22717 3 46.0061 57.593 40.8581
22721 3 52.3918 57.5611 40.8589
22723 3 55.6212 57.5601 40.866
1664 3 57.2455 46.2524 7.38768
2028 3 57.1649 49.5249 10.706
19292 3 57.1399 52.6675 10.752
19318 3 57.2165 55.9485 10.676
2314 3 57.3062 43.1805 13.8722
2366 3 57.2155 49.5121 13.836
2678 3 57.2114 46.3888 16.9574
19630 3 57.2111 52.7312 13.8814
19968 3 57.1449 52.7905 17.0014
19656 3 57.2547 55.9156 13.9052
20332 3 57.2038 55.9867 20.1557
3354 3 57.2361 46.3822 23.4205
3380 3 57.2675 49.563 23.3679
4004 3 57.2007 43.1283 29.7619
21346 3 57.245 56.0411 29.7121
4706 3 57.2157 46.3544 36.2207
4732 3 57.2027 49.573 36.1822
21996 3 57.1987 52.872 36.1719
5018 3 57.2703 43.2285 39.385
22360 3 57.2433 55.9717 39.2616
5711 3 42.9179 44.7898 44.1282
5350 3 47.5846 43.2001 42.5926
5715 3 49.167 44.8075 44.1916
5690 3 50.8036 43.1721 45.7759
5712 3 44.5411 46.4159 45.7681
5378 3 50.909 46.3954 42.6155
5741 3 49.2014 48.0467 44.1793
5716 3 50.8879 46.3543 45.7413
5406 3 53.9856 49.5043 42.5166
5718 3 54.0823 46.3058 45.7188
23001 3 42.8935 51.1312 44.1122
23003 3 46.1089 51.1556 44.0495
22664 3 44.4735 52.855 42.4921
23002 3 44.541 52.8277 45.766
23031 3 49.2422 54.3294 44.123
23004 3 47.6541 52.7088 45.7502
23006 3 50.8464 52.7126 45.7893
23007 3 52.4141 51.133 44.1523
23009 3 55.6256 51.0926 44.1381
22670 3 54.0789 52.7422 42.4786
23035 3 55.6448 54.3899 44.1654
23053 3 42.864 57.5688 44.1007
22692 3 47.6731 55.9634 42.4433
22694 3 50.8184 55.964 42.5217
23034 3 53.9469 56.0744 45.6644
6024 3 44.5563 43.2348 48.823
6052 3 47.7001 46.3407 48.8303
6080 3 50.8689 49.5469 48.8564
6081 3 52.4817 47.9625 47.332
6083 3 55.6741 47.9667 47.3755
23339 3 42.9128 51.212 47.3118
23342 3 47.5372 52.7512 48.8422
23366 3 44.4863 55.9151 48.8021
23372 3 54.0429 56.0514 48.8161
6387 3 42.902 44.7962 50.4688
6364 3 47.631 43.177 52.1592
6729 3 49.2707 44.8015 53.7615
6393 3 52.4248 44.7718 50.355
6733 3 55.7121 44.6633 53.7442
6751 3 42.9826 47.9011 53.6473
6415 3 46.0804 47.9574 50.4272
6414 3 44.5445 49.6224 52.0174
6390 3 47.7257 46.3994 52.0652
6392 3 50.8473 46.3736 52.0388
6416 3 47.701 49.5658 52.0967
6418 3 50.8069 49.5129 52.0795
6394 3 54.0549 46.3234 52.0561
6759 3 55.6485 47.9937 53.6489
23677 3 42.8891 51.2871 50.4071
24015 3 42.8827 51.2196 53.6033
24041 3 42.9183 54.3359 53.5452
24043 3 46.0678 54.324 53.6749
23681 3 49.2872 51.1732 50.4023
23707 3 49.2788 54.3376 50.3852
23680 3 47.6132 52.716 52.0355
23709 3 52.4496 54.2596 50.4142
23711 3 55.6191 54.2955 50.4257
23684 3 54.0519 52.7478 52.0935
24067 3 42.8668 57.5299 53.5963
23733 3 49.222 57.5488 50.3904
23706 3 47.6158 55.9832 52.0437
23708 3 50.8704 55.9233 52.0706
24075 3 55.607 57.4763 53.6132
7063 3 42.9828 44.7755 56.8736
7069 3 52.4267 44.8114 56.8801
7089 3 42.9616 47.9225 56.8755
6752 3 44.5335 49.6432 55.2671
6754 3 47.7183 49.5083 55.1978
6758 3 54.022 49.5916 55.3506
24379 3 42.915 54.4213 56.9201
24381 3 46.0917 54.2682 56.8772
24357 3 49.2732 51.0582 56.8751
24020 3 50.9391 52.6559 55.2499
24387 3 55.599 54.2599 56.8783
24407 3 45.993 57.5328 56.9095
24044 3 47.6932 56.0022 55.2266
24048 3 54.0124 55.9386 55.254
5356 3 57.3045 43.1149 42.6586
5694 3 57.2522 43.0874 45.7698
5382 3 57.3197 46.3271 42.6
5720 3 57.2707 46.2576 45.7429
5746 3 57.2528 49.5757 45.7798
22672 3 57.2204 52.7678 42.4845
23348 3 57.2653 52.6796 48.8001
23374 3 57.2375 56.0148 48.8645
6396 3 57.3006 46.326 52.0348
6422 3 57.293 49.6365 52.0282
23712 3 57.2702 55.8154 52.0919
24024 3 57.229 52.6888 55.1593
